$molecule
1 1
  C    -0.05881032    9.15964283    6.51977574
  O    -0.26223286    8.69796146    7.89362179
  C     0.40930644    9.32684864    8.83655869
  O     0.44115917    8.98323978    9.98119389
  O     1.25757305   10.32478107    8.30951153
  C     2.08244792   10.95124592    9.30357872
  H    -0.65796956    8.51474537    5.91934811
  H    -0.36479481   10.20415272    6.36420475
  H     0.98238841    9.02627720    6.15982662
  H     1.49399272   11.06786503   10.25961147
  H     3.02206890   10.38557209    9.41755615
  H     2.47858135   11.90125431    8.80209194
  C     0.24959148    4.44162334   10.45936290
  O     1.74379314    4.54268612   10.54424755
  C     2.19208111    5.61049045   11.16260234
  O     1.44972004    6.44649280   11.65769664
  O     3.55565800    5.61571277   11.06232921
  C     4.12255253    6.93383945   11.39471141
  H    -0.16614567    4.39646686   11.38834087
  H    -0.19529186    5.31299366    9.95387737
  H    -0.09553372    3.57391704    9.88531963
  H     3.58114208    7.70642246   10.77692882
  H     3.87170376    7.25850834   12.44526378
  H     5.22377933    6.93413128   11.33079235
  C     3.09524830    9.15811626   14.91379253
  O     3.62976369   10.28317729   14.10107128
  C     3.05535420   10.49927989   12.84910289
  O     2.05071553   10.00040904   12.47383586
  O     3.80878743   11.39281169   12.12177745
  C     5.05248555   11.90322582   12.60136882
  H     3.79893025    9.00753490   15.74129955
  H     2.04934987    9.41617290   15.29062358
  H     2.88823231    8.21224681   14.30500499
  H     4.89564808   12.66876689   13.33705608
  H     5.69428547   11.10113994   13.02145854
  H     5.53264149   12.37007610   11.72431651
  C    -2.97637523    9.10395275   15.63007199
  O    -1.72712864    9.14728676   14.85544430
  C    -1.58139576    8.53411709   13.66206013
  O    -0.50084842    8.59784352   13.06664311
  O    -2.62879909    7.83653103   13.25354706
  C    -2.55161060    7.09589421   12.06399857
  H    -2.94566311    9.99531304   16.22791706
  H    -3.91600956    9.17266022   15.05169140
  H    -3.06876148    8.17508923   16.15611111
  H    -1.78545345    6.36657940   11.99583470
  H    -3.51514973    6.65751492   11.96956574
  H    -2.35843433    7.70255314   11.19372975
  Li    0.90875713    8.54469005   11.83415378
$end

    $rem
    JOBTYPE                     FORCE
    METHOD                      B3LYP
    BASIS                       def2-SVPD
    XC_GRID                     000099000590
    NL_GRID                     000050000194
    MAX_SCF_CYCLES              100
    SCF_CONVERGENCE             8
    THRESH                      13
    BASIS_LIN_DEP_THRESH        13
    INCDFT_DENDIFF_THRESH       14
    INCDFT_GRIDDIFF_THRESH      14
    MEM_STATIC                  8000
    MEM_TOTAL                   80000
    SYMMETRY                    FALSE
    SYM_IGNORE                  TRUE
    !LOWDIN_POPULATION           TRUE
    CHELPG                      TRUE
    !ESP_CHARGES                 1
    RESP_CHARGES                1
    !HIRSHFELD                   TRUE
    !CM5                         TRUE
    DFT_D D3_BJ
AUX_BASIS                   RIJK-def2-qzvpp
    occ_ri_k                    TRUE
    ri_k_grad                   TRUE
        $end

$archive
enable_archive = True !Turns on generation of Archive
$end

