$molecule
-1 1
  C    -2.87112721  -12.32007512    3.86988987
  O    -4.13796528  -12.81600484    4.23052944
  C    -4.13048085  -13.71003255    5.25711407
  O    -3.20218190  -14.01294240    5.97540439
  O    -5.39442738  -14.28938969    5.42172397
  C    -5.54786976  -15.28360661    6.43113674
  H    -2.62665852  -11.48481282    4.52795185
  H    -2.10678395  -13.03749379    4.12609447
  H    -2.80349263  -12.07826146    2.74933971
  H    -4.62247761  -15.44229802    6.99550594
  H    -6.42057332  -14.99419697    7.06227649
  H    -5.73266133  -16.24089726    5.91809810
  C     0.51942028  -10.95524129    6.54499592
  O     1.25226558  -11.87254246    7.25015796
  C     0.55572666  -12.85231312    7.91983188
  O    -0.66335140  -13.07961567    7.83714832
  O     1.44349827  -13.45648106    8.69743885
  C     0.89820827  -14.66272267    9.40308918
  H    -0.00842892  -11.48099049    5.74149479
  H    -0.28043019  -10.44533070    7.12725033
  H     1.25144543  -10.24154957    6.15603031
  H     1.78020443  -15.37909230    9.47371448
  H     0.52456249  -14.20352467   10.33548130
  H     0.11548199  -15.09977254    8.69424595
  N     1.20844494  -16.25469624    4.28683437
  S     2.64177357  -16.68836104    3.73615993
  O     2.49691616  -17.20102440    2.39935459
  O     3.75541340  -15.83748280    4.12818683
  F     2.81106602  -18.06314503    4.84119571
  S     0.84626232  -15.26063095    5.49330677
  O     1.97655903  -14.78090130    6.20294918
  O    -0.30897297  -15.61258255    6.27186168
  F     0.28372418  -13.83809982    4.50550045
  N    -4.49105107  -13.60354077    9.80293308
  S    -3.27726589  -14.59499870    9.98963677
  O    -2.90879475  -15.09726750    8.64741551
  O    -2.22449909  -14.00567661   10.79490219
  F    -3.95655667  -15.92985283   10.99286019
  S    -4.86992871  -12.66806446   11.01909958
  O    -3.81179653  -11.88848053   11.54936825
  O    -5.97944103  -13.18313919   11.81794583
  F    -5.73943554  -11.37593018   10.12516342
  Li   -1.80588375  -14.59684693    7.08693279
$end

    $rem
    JOBTYPE                     FORCE
    METHOD                      B3LYP
    BASIS                       def2-SVPD
    XC_GRID                     000099000590
    NL_GRID                     000050000194
    MAX_SCF_CYCLES              100
    SCF_CONVERGENCE             8
    THRESH                      13
    BASIS_LIN_DEP_THRESH        13
    INCDFT_DENDIFF_THRESH       14
    INCDFT_GRIDDIFF_THRESH      14
    MEM_STATIC                  8000
    MEM_TOTAL                   80000
    SYMMETRY                    FALSE
    SYM_IGNORE                  TRUE
    !LOWDIN_POPULATION           TRUE
    CHELPG                      TRUE
    !ESP_CHARGES                 1
    RESP_CHARGES                1
    !HIRSHFELD                   TRUE
    !CM5                         TRUE
    DFT_D D3_BJ
AUX_BASIS                   RIJK-def2-qzvpp
    occ_ri_k                    TRUE
    ri_k_grad                   TRUE
        $end

$archive
enable_archive = True !Turns on generation of Archive
$end

