$molecule
-1 1
  C    -2.13212131   -3.18468042    8.70519621
  C    -3.58946557   -2.83464598    9.04532825
  O    -4.18847269   -4.09666860    9.30805209
  C    -3.30026347   -5.08039967    9.12159154
  O    -3.54662461   -6.23739224    9.25950065
  O    -2.10204373   -4.60427116    8.76667576
  H    -1.42614049   -2.78200231    9.43383054
  H    -1.84549774   -2.85822707    7.70532145
  H    -4.10706934   -2.35673622    8.21278074
  H    -3.67378684   -2.20528330    9.93229190
  C    -4.63856936    1.75838052    4.92331179
  C    -5.42437398    0.61139402    5.57857659
  O    -6.72804565    0.73292832    5.02363028
  C    -6.77184766    1.75304829    4.15927453
  O    -7.74474663    2.07072042    3.54917996
  O    -5.59019097    2.37081843    4.06166225
  H    -3.79140854    1.40925706    4.33202880
  H    -4.28663883    2.49160644    5.65018843
  H    -5.48288322    0.71268432    6.66285786
  H    -5.02094719   -0.37158780    5.33133833
  C     1.78768743    0.60196803    8.53232846
  C     1.00209718   -0.17547576    9.60004698
  O     1.97697632   -0.46579985   10.59339156
  C     3.17736165   -0.01582322   10.21208821
  O     4.17397235   -0.14339771   10.85212036
  O     3.12227919    0.59659420    9.02361413
  H     1.44722217    1.63348357    8.43057787
  H     1.75900349    0.11545687    7.55680297
  H     0.59301294   -1.11076024    9.21495058
  H     0.19714639    0.41158409   10.04268813
  P    -1.98431051    0.40254737    7.38197295
  F    -2.98445963   -0.75454741    6.81012369
  F    -1.84466729    1.01225120    5.89192642
  F    -3.26735481    1.35092244    7.66562160
  F    -0.99024595    1.54223135    7.95885469
  F    -2.12295987   -0.23169284    8.87857701
  F    -0.71397527   -0.57950471    7.11274895
$end

    $rem
    JOBTYPE                     FORCE
    METHOD                      B3LYP
    BASIS                       def2-SVPD
    XC_GRID                     000099000590
    NL_GRID                     000050000194
    MAX_SCF_CYCLES              100
    SCF_CONVERGENCE             8
    THRESH                      13
    BASIS_LIN_DEP_THRESH        13
    INCDFT_DENDIFF_THRESH       14
    INCDFT_GRIDDIFF_THRESH      14
    MEM_STATIC                  8000
    MEM_TOTAL                   80000
    SYMMETRY                    FALSE
    SYM_IGNORE                  TRUE
    !LOWDIN_POPULATION           TRUE
    CHELPG                      TRUE
    !ESP_CHARGES                 1
    RESP_CHARGES                1
    !HIRSHFELD                   TRUE
    !CM5                         TRUE
    DFT_D D3_BJ
AUX_BASIS                   RIJK-def2-qzvpp
    occ_ri_k                    TRUE
    ri_k_grad                   TRUE
        $end

$archive
enable_archive = True !Turns on generation of Archive
$end

