12
Properties=species:S:1:pos:R:3 name=DMC mapped_smiles="[C:1]([O:2][C:3](=[O:4])[O:5][C:6]([H:10])([H:11])[H:12])([H:7])([H:8])[H:9]" pbc="F F F"
C       -2.61850739      -2.88744545      -4.29433823
O       -1.53694534      -3.69928932      -3.77371597
C       -0.79198074      -3.28188515      -2.69306946
O       -0.61449814      -2.10090065      -2.36029816
O       -0.24858093      -4.42621803      -2.14536285
C        0.49850082      -4.14593124      -0.86000443
H       -3.10741806      -2.48454094      -3.44210052
H       -2.22695923      -2.18238640      -4.98964310
H       -3.31813049      -3.43080521      -4.95417023
H        1.27109146      -3.35850906      -1.04164124
H       -0.27530289      -3.73966217      -0.24811172
H        1.02905273      -5.11816978      -0.48695755
12
Properties=species:S:1:pos:R:3 name=DMC mapped_smiles="[C:1]([O:2][C:3](=[O:4])[O:5][C:6]([H:10])([H:11])[H:12])([H:7])([H:8])[H:9]" pbc="F F F"
C        0.75854874       4.43065262      -3.77209854
O        1.15737152       3.43255615      -2.76821899
C        2.41873550       2.99291229      -3.00027275
O        3.21445084       3.18934631      -3.90190887
O        2.73281479       2.26856613      -1.97747612
C        4.00448608       1.56756973      -2.03171158
H        1.13430023       4.19226074      -4.75436783
H       -0.36576843       4.56137848      -3.71401596
H        1.24833679       5.34920502      -3.51494598
H        4.16144180       0.74713135      -2.75806999
H        4.83009338       2.32549667      -2.18873405
H        4.18106461       1.07382584      -1.02686310
12
Properties=species:S:1:pos:R:3 name=DMC mapped_smiles="[C:1]([O:2][C:3](=[O:4])[O:5][C:6]([H:10])([H:11])[H:12])([H:7])([H:8])[H:9]" pbc="F F F"
C       -2.01159096      -3.83068657      -1.59885216
O       -3.18311501      -4.62369728      -1.12379646
C       -3.85736275      -4.17634773      -0.02020645
O       -3.52905464      -3.26050377       0.74327087
O       -4.95976448      -4.94264412       0.07273674
C       -5.69801521      -4.88998985       1.38011932
H       -1.61113930      -3.29029274      -0.76044464
H       -1.35830116      -4.65832520      -2.04498100
H       -2.28225899      -3.13061905      -2.37923241
H       -6.67043495      -5.24687767       1.23087120
H       -5.23359871      -5.47207451       2.19090271
H       -5.74527931      -3.84043884       1.60271072
12
Properties=species:S:1:pos:R:3 name=DMC mapped_smiles="[C:1]([O:2][C:3](=[O:4])[O:5][C:6]([H:10])([H:11])[H:12])([H:7])([H:8])[H:9]" pbc="F F F"
C        4.57065582      -2.07166862      -3.01714897
O        4.79870796      -3.26137733      -2.13614845
C        4.05839348      -3.62535286      -1.01883125
O        4.36499023      -4.50249672      -0.21990967
O        2.95872498      -2.83862114      -0.98710632
C        2.01375389      -3.21963882      -0.01739502
H        5.44092751      -1.75701332      -3.56997299
H        3.78867531      -2.37897110      -3.69659233
H        4.18626022      -1.30644035      -2.36738586
H        2.53738594      -3.38044930       0.99358368
H        1.21090889      -2.46156120       0.08279037
H        1.66079712      -4.16160202      -0.31476974
12
Properties=species:S:1:pos:R:3 name=DMC mapped_smiles="[C:1]([O:2][C:3](=[O:4])[O:5][C:6]([H:10])([H:11])[H:12])([H:7])([H:8])[H:9]" pbc="F F F"
C       -1.77635956      -3.01615906      -0.78914070
O       -2.95514297      -2.33644867      -0.45116234
C       -2.95625687      -1.04752159      -0.75607491
O       -1.91727829      -0.36808395      -0.78818893
O       -4.21410561      -0.50760651      -0.84801292
C       -4.37060738       0.87680626      -1.35052490
H       -2.04265976      -4.05429840      -1.10551262
H       -1.17136765      -2.48072052      -1.52017593
H       -1.18746185      -3.06028366       0.12669182
H       -5.11647034       1.32462883      -0.73736382
H       -3.39383698       1.25633812      -1.29647255
H       -4.83797264       0.66924095      -2.33028984
12
Properties=species:S:1:pos:R:3 name=DMC mapped_smiles="[C:1]([O:2][C:3](=[O:4])[O:5][C:6]([H:10])([H:11])[H:12])([H:7])([H:8])[H:9]" pbc="F F F"
C        8.39273262       2.57506371       0.46651459
O        8.46930504       3.85794640      -0.25814629
C        9.13139153       4.92026138       0.27160645
O        9.74422646       5.01053429       1.33098984
O        8.88022041       5.95881844      -0.52304268
C        9.72398567       7.14432716      -0.36913300
H        9.20746040       1.91179657       0.40051079
H        8.25277519       2.70866203       1.52413368
H        7.60180473       1.97903824       0.09907722
H        9.70481682       7.75924492      -1.29662132
H        9.36311531       7.77727318       0.43333435
H       10.78651619       6.86631203      -0.13431931
12
Properties=species:S:1:pos:R:3 name=DMC mapped_smiles="[C:1]([O:2][C:3](=[O:4])[O:5][C:6]([H:10])([H:11])[H:12])([H:7])([H:8])[H:9]" pbc="F F F"
C       -0.61974144       5.07071304      -5.62923050
O       -2.08673477       5.00423431      -5.53711700
C       -2.51943207       4.79262924      -4.23732758
O       -1.88319397       4.21832275      -3.36344147
O       -3.79237747       5.02248383      -4.22305679
C       -4.45983696       4.31172180      -3.27283478
H       -0.19464111       5.40667725      -4.65428543
H       -0.29341125       4.00705338      -5.75924683
H       -0.28230667       5.75950623      -6.45461655
H       -5.57808113       4.24227905      -3.42183685
H       -4.03348160       3.29954529      -3.28804016
H       -4.31710243       4.62814713      -2.23870468
12
Properties=species:S:1:pos:R:3 name=DMC mapped_smiles="[C:1]([O:2][C:3](=[O:4])[O:5][C:6]([H:10])([H:11])[H:12])([H:7])([H:8])[H:9]" pbc="F F F"
C       -2.10251617      -4.25095749      -6.20700455
O       -0.90310287      -4.86881638      -5.82106590
C       -0.82897186      -6.24264526      -5.58478355
O       -1.77420998      -7.00548172      -5.70537758
O        0.40152359      -6.57379150      -5.19055748
C        0.68114662      -7.97179031      -4.92567253
H       -1.98039055      -3.17188644      -6.23881340
H       -2.34522629      -4.54134369      -7.25356102
H       -2.85108376      -4.50490952      -5.47523689
H        1.77617455      -7.91841125      -4.77296829
H        0.21793556      -8.31964493      -4.05513000
H        0.40206337      -8.59127808      -5.78244591
12
Properties=species:S:1:pos:R:3 name=DMC mapped_smiles="[C:1]([O:2][C:3](=[O:4])[O:5][C:6]([H:10])([H:11])[H:12])([H:7])([H:8])[H:9]" pbc="F F F"
C        1.49142075      -3.74898148      -4.05093575
O        2.68389893      -3.06103897      -3.56538391
C        2.60379410      -1.83194351      -2.95166588
O        1.58244705      -1.26311111      -2.77023697
O        3.76969147      -1.28718948      -2.69967079
C        3.98058319      -0.02800751      -2.10899544
H        0.76694107      -3.80578613      -3.21934319
H        0.99287796      -3.16044617      -4.86589241
H        1.69188690      -4.77561188      -4.34584045
H        4.16133499      -0.06518936      -1.01583862
H        4.86319733       0.41176605      -2.58608055
H        3.15642548       0.63424683      -2.35611153
12
Properties=species:S:1:pos:R:3 name=DMC mapped_smiles="[C:1]([O:2][C:3](=[O:4])[O:5][C:6]([H:10])([H:11])[H:12])([H:7])([H:8])[H:9]" pbc="F F F"
C        1.61395073      -1.88643074      -5.26462746
O        0.68755913      -2.43066597      -6.22975922
C       -0.44844627      -1.62669563      -6.50516129
O       -0.91450310      -0.72138977      -5.88997650
O       -1.00049782      -2.09325600      -7.64285469
C       -2.26133347      -1.56543159      -8.15256119
H        1.04934883      -1.48932838      -4.40291595
H        2.32525444      -2.69271278      -5.05245972
H        2.13894081      -1.03238678      -5.66783714
H       -2.17422295      -0.47993469      -8.01376724
H       -2.41123962      -1.89573097      -9.18058586
H       -3.16187096      -1.94262123      -7.61596870
12
Properties=species:S:1:pos:R:3 name=DMC mapped_smiles="[C:1]([O:2][C:3](=[O:4])[O:5][C:6]([H:10])([H:11])[H:12])([H:7])([H:8])[H:9]" pbc="F F F"
C       -2.10526657      -1.46099854      -2.36425972
O       -1.06029892      -2.42929077      -2.72965431
C        0.11231613      -2.31210327      -2.10626411
O        0.45894241      -1.52447891      -1.18425941
O        0.88089752      -3.15549469      -2.72168922
C        2.16128922      -3.31391144      -2.15654182
H       -2.51266479      -1.68851471      -1.34217262
H       -1.71880341      -0.39470291      -2.39756203
H       -2.93445587      -1.61365128      -3.05223274
H        1.87900543      -3.63211823      -1.13617134
H        2.81461716      -3.93899155      -2.76405525
H        2.71766663      -2.37213898      -1.93214607
12
Properties=species:S:1:pos:R:3 name=DMC mapped_smiles="[C:1]([O:2][C:3](=[O:4])[O:5][C:6]([H:10])([H:11])[H:12])([H:7])([H:8])[H:9]" pbc="F F F"
C        0.61037064      10.45146370       0.79859161
O        1.42759705       9.90158272       1.86527252
C        0.84684563       8.84215736       2.60258102
O        0.10710526       7.96525002       2.12106705
O        1.19223213       8.83231544       3.85788345
C        0.95734978       7.60081673       4.60597229
H        0.50719643       9.66776466       0.06757355
H       -0.40134621      10.60315132       1.24097443
H        1.05056000      11.33082771       0.37771606
H       -0.04923248       7.68457985       5.04875946
H        1.12851524       6.62598991       4.00503922
H        1.63235474       7.57031059       5.46530151
12
Properties=species:S:1:pos:R:3 name=DMC mapped_smiles="[C:1]([O:2][C:3](=[O:4])[O:5][C:6]([H:10])([H:11])[H:12])([H:7])([H:8])[H:9]" pbc="F F F"
C       -0.16574860       3.00551987       6.20426178
O       -1.18962479       3.63968849       5.50422287
C       -1.38164139       3.06852150       4.28516006
O       -0.57794189       2.33762550       3.72077179
O       -2.54637909       3.56377983       3.85310745
C       -3.00863266       2.88451195       2.71120834
H       -0.08737183       1.95836258       5.93335342
H        0.73932266       3.62369919       6.06398392
H       -0.39740753       3.13499069       7.29321671
H       -2.55402756       3.41995621       1.86697006
H       -2.73089218       1.78245544       2.73603821
H       -4.10261917       3.00903130       2.67364502
12
Properties=species:S:1:pos:R:3 name=DMC mapped_smiles="[C:1]([O:2][C:3](=[O:4])[O:5][C:6]([H:10])([H:11])[H:12])([H:7])([H:8])[H:9]" pbc="F F F"
C        3.46348572      -0.20438004       0.82971382
O        3.64276505      -1.14793396      -0.26063919
C        2.48585510      -1.72420883      -0.83672905
O        1.32965469      -1.40793610      -0.55743980
O        2.90264893      -2.47320175      -1.83294487
C        1.87038803      -3.20737457      -2.59392357
H        2.86700058      -0.67480087       1.59337425
H        4.41215134       0.09425354       1.26512718
H        3.08810425       0.74458313       0.47211838
H        1.16304016      -3.66734314      -1.91391182
H        1.29222107      -2.47626495      -3.19363976
H        2.38848495      -3.95265961      -3.17168236
12
Properties=species:S:1:pos:R:3 name=DMC mapped_smiles="[C:1]([O:2][C:3](=[O:4])[O:5][C:6]([H:10])([H:11])[H:12])([H:7])([H:8])[H:9]" pbc="F F F"
C       -4.19956970       1.04638100       1.17937851
O       -4.38578033       0.11937523       2.20925522
C       -3.87538910      -1.11814308       2.05398560
O       -3.35620499      -1.52904129       0.97642517
O       -4.16681671      -1.81275558       3.14465714
C       -3.95079422      -3.22192764       3.20204926
H       -4.73260498       0.75518036       0.27516556
H       -4.51556396       2.00166512       1.50762558
H       -3.15689850       1.22038651       0.88996887
H       -3.87348175      -3.57603264       4.28639221
H       -4.76933670      -3.59617424       2.70828629
H       -2.99707794      -3.39218903       2.70553207
12
Properties=species:S:1:pos:R:3 name=DMC mapped_smiles="[C:1]([O:2][C:3](=[O:4])[O:5][C:6]([H:10])([H:11])[H:12])([H:7])([H:8])[H:9]" pbc="F F F"
C        4.20661926      -7.87034988       2.72390556
O        2.94495773      -7.49441147       2.09938622
C        3.19083786      -6.82753372       0.90117455
O        4.30313492      -6.51530838       0.59165764
O        1.99875641      -6.69801331       0.21726799
C        1.97993088      -5.88386154      -1.00252724
H        4.85385895      -7.03115082       2.96845055
H        4.06521225      -8.41809464       3.66862297
H        4.74031448      -8.39465332       1.95522118
H        3.00819016      -5.78841400      -1.36478615
H        1.41448212      -6.38745880      -1.87594032
H        1.62919235      -4.85563278      -0.69785500
12
Properties=species:S:1:pos:R:3 name=DMC mapped_smiles="[C:1]([O:2][C:3](=[O:4])[O:5][C:6]([H:10])([H:11])[H:12])([H:7])([H:8])[H:9]" pbc="F F F"
C       -2.38728714      -0.37650681       3.57242966
O       -2.62777710      -1.39678192       2.49772263
C       -2.30375290      -0.98196411       1.24947739
O       -1.71844101       0.07990265       1.09500122
O       -2.71936798      -1.91527557       0.42418289
C       -2.58838272      -1.62462234      -1.01486588
H       -2.20223618       0.69683075       3.30257034
H       -3.19911194      -0.46990967       4.29791260
H       -1.40522003      -0.71946716       3.92852783
H       -2.94230270      -2.60483551      -1.51199341
H       -3.20248032      -0.73935699      -1.24467850
H       -1.58390427      -1.43587112      -1.35152435
12
Properties=species:S:1:pos:R:3 name=DMC mapped_smiles="[C:1]([O:2][C:3](=[O:4])[O:5][C:6]([H:10])([H:11])[H:12])([H:7])([H:8])[H:9]" pbc="F F F"
C        0.42510986      -0.66082191      -3.90159035
O       -0.03653717       0.65550041      -4.37632561
C        0.26464462       1.03694725      -5.65040016
O        0.69997025       0.33605576      -6.52151489
O       -0.12921906       2.38824463      -5.71097183
C       -0.03100586       3.10583878      -6.91123199
H       -0.25630569      -0.84695625      -3.06863976
H        0.25655746      -1.38141060      -4.67683411
H        1.45363235      -0.66814613      -3.47445488
H        0.02798080       2.47082901      -7.80761528
H       -0.96834183       3.69614029      -6.99234581
H        0.73792267       3.79929352      -6.90339851
12
Properties=species:S:1:pos:R:3 name=DMC mapped_smiles="[C:1]([O:2][C:3](=[O:4])[O:5][C:6]([H:10])([H:11])[H:12])([H:7])([H:8])[H:9]" pbc="F F F"
C       -4.68350220      -0.04859734       0.86874199
O       -5.54224396       0.22373009       2.08934212
C       -4.87185287       0.86174965       3.14665413
O       -3.73756409       1.26026917       2.97003746
O       -5.68330002       1.02107239       4.13094902
C       -5.11016464       1.82272530       5.15812111
H       -5.19285965      -0.76428795       0.24942207
H       -4.69000626       0.86019325       0.26260757
H       -3.67155457      -0.38820076       1.14088249
H       -5.88707733       2.11015701       5.86190224
H       -4.39111328       1.25461388       5.71726799
H       -4.71618652       2.76070213       4.72982597
12
Properties=species:S:1:pos:R:3 name=DMC mapped_smiles="[C:1]([O:2][C:3](=[O:4])[O:5][C:6]([H:10])([H:11])[H:12])([H:7])([H:8])[H:9]" pbc="F F F"
C        4.82238007      -3.18313980       2.17424774
O        5.10411453      -1.76010895       2.13941002
C        4.58283234      -1.06841850       1.05844688
O        4.03391647      -1.65193748       0.11395454
O        4.87203598       0.23865318       1.25337791
C        4.52625656       1.13056183       0.19019127
H        5.58065796      -3.66072083       1.48368454
H        4.87689209      -3.55645370       3.16278267
H        3.84858704      -3.35447121       1.72640610
H        5.44034958       1.61497116      -0.04792976
H        4.22393036       0.53281403      -0.66703224
H        3.74723434       1.69037819       0.64230156
12
Properties=species:S:1:pos:R:3 name=DMC mapped_smiles="[C:1]([O:2][C:3](=[O:4])[O:5][C:6]([H:10])([H:11])[H:12])([H:7])([H:8])[H:9]" pbc="F F F"
C        2.89798927       1.38095856      -5.71228409
O        1.50008202       1.21955109      -5.88735962
C        0.70437050       1.29926300      -4.78234100
O        1.23522568       1.37696457      -3.66033936
O       -0.61775589       1.19190216      -5.06298065
C       -1.46710587       1.43624496      -3.85556793
H        3.35772324       0.52059174      -5.30913162
H        3.40716743       1.56744385      -6.65182114
H        3.02206421       2.25727844      -5.11282730
H       -2.42881584       1.71963501      -4.27775192
H       -1.52886963       0.49276352      -3.25274277
H       -1.08794975       2.28990555      -3.28694916
12
Properties=species:S:1:pos:R:3 name=DMC mapped_smiles="[C:1]([O:2][C:3](=[O:4])[O:5][C:6]([H:10])([H:11])[H:12])([H:7])([H:8])[H:9]" pbc="F F F"
C       -5.30682373      -0.53837776       2.62848282
O       -5.51322937      -1.80839539       3.31203842
C       -4.63379288      -2.77350616       3.04156876
O       -3.70667267      -2.70514679       2.23696136
O       -5.00469208      -3.77497292       3.79077911
C       -4.38364792      -5.07645416       3.71495056
H       -5.89059067       0.19696808       3.13736343
H       -4.29844284      -0.20437622       2.56983566
H       -5.72820282      -0.68627739       1.62973404
H       -3.43854141      -4.97308159       4.06790924
H       -4.87902069      -5.82346916       4.35274506
H       -4.53995132      -5.30092430       2.66260910
12
Properties=species:S:1:pos:R:3 name=DMC mapped_smiles="[C:1]([O:2][C:3](=[O:4])[O:5][C:6]([H:10])([H:11])[H:12])([H:7])([H:8])[H:9]" pbc="F F F"
C        4.69631195       6.38593674      -1.38240433
O        5.55932236       5.52992439      -0.53309250
C        5.19888687       4.25212288      -0.26150894
O        4.19486618       3.81791306      -0.79292679
O        6.02413177       3.60702705       0.64760971
C        5.58418274       2.37030029       1.20970154
H        4.29520416       5.69597054      -2.19496918
H        3.86840820       6.84813881      -0.86146927
H        5.28498840       7.14686394      -1.85270309
H        5.71654510       1.62974548       0.36520767
H        6.15214539       2.15601540       2.15246582
H        4.51325226       2.37978363       1.44092941
12
Properties=species:S:1:pos:R:3 name=DMC mapped_smiles="[C:1]([O:2][C:3](=[O:4])[O:5][C:6]([H:10])([H:11])[H:12])([H:7])([H:8])[H:9]" pbc="F F F"
C        1.08007240      -0.44123840      -9.21283150
O        1.83126640      -1.62758446      -8.98621559
C        1.90316963      -2.00320625      -7.68751717
O        1.52827263      -1.42072487      -6.67285347
O        2.65972710      -3.05049324      -7.58255959
C        2.71695518      -3.72118378      -6.27173805
H        1.61198235       0.42548180      -8.78482246
H        0.85274315      -0.22492218     -10.23644447
H        0.21647835      -0.52590561      -8.57025337
H        3.03140831      -4.74745178      -6.40262794
H        3.42893410      -3.16562271      -5.69182014
H        1.76642418      -3.57771111      -5.90610695
12
Properties=species:S:1:pos:R:3 name=DMC mapped_smiles="[C:1]([O:2][C:3](=[O:4])[O:5][C:6]([H:10])([H:11])[H:12])([H:7])([H:8])[H:9]" pbc="F F F"
C        3.65829468      -1.30210304      -2.50329590
O        2.66154099      -1.08895493      -3.53144836
C        1.89134216       0.04037285      -3.52004623
O        2.07731247       1.02240372      -2.83213806
O        1.06826782      -0.00896835      -4.57579803
C        0.39894867       1.15913582      -4.81490135
H        4.39295197      -0.50275421      -2.46215439
H        3.09034729      -1.39398575      -1.55904198
H        4.19081116      -2.22185326      -2.79023170
H        1.11725616       1.98634529      -4.68651581
H        0.17171860       1.09836006      -5.86317062
H       -0.55768585       1.17926407      -4.16135216
12
Properties=species:S:1:pos:R:3 name=DMC mapped_smiles="[C:1]([O:2][C:3](=[O:4])[O:5][C:6]([H:10])([H:11])[H:12])([H:7])([H:8])[H:9]" pbc="F F F"
C       -3.81760216       1.16698456      -0.98777008
O       -3.15580940       2.03281021      -1.97725105
C       -3.09972191       1.60203934      -3.28215218
O       -3.34871864       0.49386978      -3.62951851
O       -2.65609932       2.65319824      -4.05426979
C       -2.60226059       2.47830582      -5.50854683
H       -4.78831863       0.86488342      -1.46355820
H       -3.21092033       0.22509003      -0.85537148
H       -4.01728439       1.71636200      -0.04061317
H       -2.03151131       3.34196854      -5.93959236
H       -2.09066010       1.53397751      -5.69783211
H       -3.68614006       2.51787949      -5.78053474
12
Properties=species:S:1:pos:R:3 name=DMC mapped_smiles="[C:1]([O:2][C:3](=[O:4])[O:5][C:6]([H:10])([H:11])[H:12])([H:7])([H:8])[H:9]" pbc="F F F"
C        0.73859406      -7.50538254       1.10903168
O        1.89454269      -6.70274734       1.25907898
C        1.71313477      -5.46797562       0.83250809
O        0.71218109      -5.02751541       0.30295944
O        2.86655426      -4.81952667       0.96072006
C        2.83078384      -3.45672226       0.58192253
H        0.06166458      -7.07300186       0.45501137
H        1.18420029      -8.41021729       0.63980675
H        0.30145264      -7.75881577       2.06344986
H        3.78499985      -2.99466705       0.92589188
H        2.63026428      -3.38133621      -0.44842339
H        2.03531647      -3.03619385       1.11615944
12
Properties=species:S:1:pos:R:3 name=DMC mapped_smiles="[C:1]([O:2][C:3](=[O:4])[O:5][C:6]([H:10])([H:11])[H:12])([H:7])([H:8])[H:9]" pbc="F F F"
C        3.78328514      -0.98148727       2.40843773
O        4.93924332      -1.77703476       1.98297119
C        5.05355453      -2.17316818       0.76731300
O        4.17366028      -1.95848656      -0.09966469
O        6.30928612      -2.64827728       0.47843933
C        6.44425392      -2.96193695      -0.90382957
H        2.89327812      -1.37472153       1.94996643
H        3.67331123      -0.86656189       3.47854042
H        3.98742294      -0.00348282       1.99093437
H        7.48341370      -3.09712219      -1.11143684
H        5.96767044      -3.87456322      -1.02755547
H        6.05595779      -2.20687294      -1.60533905
12
Properties=species:S:1:pos:R:3 name=DMC mapped_smiles="[C:1]([O:2][C:3](=[O:4])[O:5][C:6]([H:10])([H:11])[H:12])([H:7])([H:8])[H:9]" pbc="F F F"
C        4.46682739       2.77342987      -0.90142441
O        4.79615402       1.47597504      -0.26468277
C        4.24319458       0.39905548      -0.88078499
O        3.64656830       0.45256424      -1.93249702
O        4.57519913      -0.65403748      -0.04146957
C        4.22394943      -1.93394089      -0.57069206
H        3.55080414       2.98296738      -0.50419998
H        5.24890518       3.50038528      -0.75325012
H        4.35275269       2.65399551      -1.99749947
H        3.09852982      -1.98314667      -0.79560089
H        4.72630310      -2.05473328      -1.51957893
H        4.60346603      -2.63274384       0.18335342
12
Properties=species:S:1:pos:R:3 name=DMC mapped_smiles="[C:1]([O:2][C:3](=[O:4])[O:5][C:6]([H:10])([H:11])[H:12])([H:7])([H:8])[H:9]" pbc="F F F"
C       -0.26887512      -0.26845932       3.88019180
O       -0.06454086      -0.94659233       5.10468674
C        0.51269913      -2.11612129       5.06849289
O        1.19932938      -2.55380249       4.17704010
O        0.43301010      -2.56572533       6.35403442
C        1.04168701      -3.81782722       6.69631958
H       -0.24262238      -1.00056839       3.06327438
H       -1.17672348       0.34649277       3.96059799
H        0.55375290       0.45666504       3.84496689
H        0.73207855      -4.02939224       7.72701454
H        0.73393631      -4.59250450       6.02260208
H        2.11723709      -3.70388031       6.69569016
12
Properties=species:S:1:pos:R:3 name=DMC mapped_smiles="[C:1]([O:2][C:3](=[O:4])[O:5][C:6]([H:10])([H:11])[H:12])([H:7])([H:8])[H:9]" pbc="F F F"
C        4.11625671      -2.56195641      -6.37878036
O        4.37209320      -1.20372772      -6.65760612
C        4.85474396      -1.06618500      -7.88382721
O        4.85836029      -1.93283463      -8.72343254
O        5.32668686       0.15359879      -7.99697304
C        5.65898514       0.69206238      -9.24209976
H        5.01740646      -3.22502708      -6.23189545
H        3.59152985      -2.64755249      -5.39255142
H        3.38412476      -2.97729301      -7.07088852
H        5.81588364       1.75802994      -9.06579399
H        6.59336090       0.27923775      -9.58399200
H        4.83354950       0.52689552      -9.93883324
12
Properties=species:S:1:pos:R:3 name=DMC mapped_smiles="[C:1]([O:2][C:3](=[O:4])[O:5][C:6]([H:10])([H:11])[H:12])([H:7])([H:8])[H:9]" pbc="F F F"
C        0.28372765       1.99629974      -3.09314728
O        0.66921997       3.39729691      -3.36604500
C        1.24897575       4.09552002      -2.36287308
O        1.19042397       3.71428680      -1.21040154
O        1.84706879       5.23241806      -2.86961746
C        2.41268158       6.16449356      -1.98940086
H        1.03810692       1.32851601      -3.38215446
H       -0.04585266       1.89007950      -2.02062607
H       -0.51094246       1.74501801      -3.76308632
H        1.75361252       7.01957893      -1.87051010
H        2.55659294       5.64755058      -1.07533264
H        3.24740410       6.48691940      -2.53926468
12
Properties=species:S:1:pos:R:3 name=DMC mapped_smiles="[C:1]([O:2][C:3](=[O:4])[O:5][C:6]([H:10])([H:11])[H:12])([H:7])([H:8])[H:9]" pbc="F F F"
C        6.45635986      -0.27888870       1.05444908
O        5.48980904      -0.44395065       2.18062019
C        4.19050980      -0.75149155       1.82216454
O        3.90014076      -1.20212555       0.71020699
O        3.47662926      -0.71536255       2.96161461
C        2.11535645      -1.24574661       2.88891792
H        7.19193077       0.47239685       1.34947777
H        7.05217171      -1.19264984       0.83550453
H        5.96890640       0.13919449       0.17388535
H        1.84146118      -1.67144394       3.85929298
H        1.51658821      -0.35857391       2.67636681
H        2.18975067      -1.91029739       2.00324059
12
Properties=species:S:1:pos:R:3 name=DMC mapped_smiles="[C:1]([O:2][C:3](=[O:4])[O:5][C:6]([H:10])([H:11])[H:12])([H:7])([H:8])[H:9]" pbc="F F F"
C       -6.95155907      -1.67453003      -4.71476746
O       -6.61775398      -0.83503723      -3.65504837
C       -5.30312920      -0.48414993      -3.49264908
O       -4.32702637      -1.10774994      -3.92468262
O       -5.19276047       0.67763710      -2.76073074
C       -3.84545135       1.14147186      -2.42442703
H       -7.58705521      -2.44080544      -4.32893372
H       -7.40479088      -1.19818878      -5.56274796
H       -6.10915375      -2.32457161      -5.10642624
H       -3.24858284       0.23331070      -2.29257584
H       -3.48823166       1.69310951      -3.34936142
H       -3.73697662       1.77792740      -1.61178970
12
Properties=species:S:1:pos:R:3 name=DMC mapped_smiles="[C:1]([O:2][C:3](=[O:4])[O:5][C:6]([H:10])([H:11])[H:12])([H:7])([H:8])[H:9]" pbc="F F F"
C       -1.38981438       0.71360397       7.26666260
O       -0.01073456       0.85485458       7.03696251
C        0.50315094       1.20621490       5.90706444
O       -0.03541565       1.72450829       4.93765068
O        1.87921715       1.12142181       6.04897308
C        2.58672523       1.33567619       4.79223633
H       -1.43340302       0.05150795       8.15118217
H       -1.71575356       1.71579552       7.55661774
H       -1.89208412       0.37881279       6.31299400
H        3.64369011       1.13596916       5.11259460
H        2.39024544       0.63920021       4.01518440
H        2.46543312       2.34313774       4.44883347
12
Properties=species:S:1:pos:R:3 name=DMC mapped_smiles="[C:1]([O:2][C:3](=[O:4])[O:5][C:6]([H:10])([H:11])[H:12])([H:7])([H:8])[H:9]" pbc="F F F"
C        3.11652565       0.48236656       4.72643280
O        2.28727341       0.02746773       3.54806519
C        1.91316414      -1.21650314       3.45718384
O        2.34939766      -2.16117859       4.10533524
O        0.92613983      -1.20128441       2.56792068
C        0.24585724      -2.47376442       2.32207108
H        3.94908333      -0.21428490       4.75178146
H        3.41490936       1.49505424       4.46878815
H        2.56015778       0.35052299       5.66764069
H       -0.41981506      -2.75431252       3.16338730
H       -0.42615700      -2.52485466       1.46387482
H        1.06360245      -3.19024277       2.22269249
12
Properties=species:S:1:pos:R:3 name=DMC mapped_smiles="[C:1]([O:2][C:3](=[O:4])[O:5][C:6]([H:10])([H:11])[H:12])([H:7])([H:8])[H:9]" pbc="F F F"
C       -4.58991432       1.92582130      -2.51171112
O       -4.75514412       0.53604126      -2.03179932
C       -3.78031540      -0.38255882      -2.16700363
O       -2.55540276      -0.22820091      -2.28208923
O       -4.31006432      -1.60044861      -2.11274338
C       -3.41031075      -2.74478722      -2.17356110
H       -3.86050606       2.19338608      -1.73923111
H       -4.21890640       2.02444077      -3.54783249
H       -5.50410652       2.54744530      -2.34445953
H       -3.10816002      -2.79411125      -3.24238586
H       -2.55937386      -2.62447929      -1.49346161
H       -4.04629517      -3.65009499      -1.87033844
12
Properties=species:S:1:pos:R:3 name=DMC mapped_smiles="[C:1]([O:2][C:3](=[O:4])[O:5][C:6]([H:10])([H:11])[H:12])([H:7])([H:8])[H:9]" pbc="F F F"
C       -1.32435036      -3.31324005       3.13008881
O       -0.64200401      -3.62173462       4.32013321
C        0.36462021      -2.81115723       4.85473633
O        1.12957573      -2.07612228       4.23311234
O        0.45384026      -2.97735596       6.25093460
C        1.60751915      -2.31320953       6.87794876
H       -1.08459091      -2.31010056       2.69583511
H       -1.06639481      -4.07187653       2.40353775
H       -2.47682190      -3.45853806       3.32534409
H        2.15349388      -1.72824478       6.19744873
H        1.26144981      -1.79664612       7.76431465
H        2.16666603      -3.11910248       7.29212952
12
Properties=species:S:1:pos:R:3 name=DMC mapped_smiles="[C:1]([O:2][C:3](=[O:4])[O:5][C:6]([H:10])([H:11])[H:12])([H:7])([H:8])[H:9]" pbc="F F F"
C        7.15397263      -3.47729111      -4.81378746
O        6.40861130      -4.62417221      -5.21458626
C        5.02605820      -4.69358253      -4.94373322
O        4.30851746      -3.89447594      -4.36355972
O        4.65018845      -5.89306068      -5.39793205
C        3.32900238      -6.28259468      -4.77832222
H        6.98110580      -3.14509964      -3.79298592
H        8.18553352      -3.57828522      -5.09447670
H        6.87078476      -2.55291557      -5.38625526
H        3.24015427      -7.36618614      -4.97646904
H        3.40354919      -6.02523422      -3.79928398
H        2.56962204      -5.83630371      -5.35562325
12
Properties=species:S:1:pos:R:3 name=DMC mapped_smiles="[C:1]([O:2][C:3](=[O:4])[O:5][C:6]([H:10])([H:11])[H:12])([H:7])([H:8])[H:9]" pbc="F F F"
C        3.47699928       1.60843849      -3.07603836
O        3.72097206       1.49103355      -4.52588654
C        2.61796761       1.81339836      -5.28118896
O        1.48655891       1.94721413      -4.86272812
O        3.05124855       1.99492455      -6.52178383
C        2.03591728       2.09809303      -7.61326790
H        4.23687553       1.01704597      -2.52987289
H        3.56167412       2.69433594      -2.93461990
H        2.49848747       1.30855751      -2.78037262
H        1.24566841       1.45055199      -7.47531319
H        1.64850044       3.10661125      -7.56348610
H        2.44364738       2.00245285      -8.60893440
