12
Properties=species:S:1:pos:R:3 name=DMC mapped_smiles="[C:1]([O:2][C:3](=[O:4])[O:5][C:6]([H:10])([H:11])[H:12])([H:7])([H:8])[H:9]" pbc="F F F"
C        2.43352127      -0.98332977      -4.23204422
O        1.97654343      -1.11504173      -5.59506607
C        0.67774200      -1.06436348      -5.84653854
O       -0.20021439      -0.66056824      -5.07944107
O        0.56731796      -1.44518852      -7.19197845
C       -0.75891495      -1.38107109      -7.76041412
H        3.49951935      -1.27661705      -4.27490234
H        2.43800354       0.01140785      -3.88217163
H        1.94398880      -1.59780884      -3.57810974
H       -0.85198212      -1.85410309      -8.76962662
H       -1.48802948      -1.93270683      -7.15705490
H       -0.99661255      -0.28882027      -7.95898056
12
Properties=species:S:1:pos:R:3 name=DMC mapped_smiles="[C:1]([O:2][C:3](=[O:4])[O:5][C:6]([H:10])([H:11])[H:12])([H:7])([H:8])[H:9]" pbc="F F F"
C        0.00000000       0.00000000       0.00000000
O        1.17660904       0.75014877       0.12819862
C        1.10100555       2.05426025       0.33261299
O        0.07640839       2.68023300       0.06688499
O        2.20746994       2.33806229       1.04271317
C        2.53052521       3.73685837       1.19413567
H       -0.50776672       0.20347214      -0.98222351
H        0.19844818      -1.07156181       0.12804413
H       -0.75425339       0.20205688       0.76507568
H        3.44430542       3.70779037       1.74378204
H        2.83437347       4.17070770       0.21288109
H        1.64114761       4.21286774       1.59836578
12
Properties=species:S:1:pos:R:3 name=DMC mapped_smiles="[C:1]([O:2][C:3](=[O:4])[O:5][C:6]([H:10])([H:11])[H:12])([H:7])([H:8])[H:9]" pbc="F F F"
C        0.00000000       0.00000000       0.00000000
O       -1.19503403       0.82062531      -0.08248138
C       -2.33720589       0.48967934       0.62126923
O       -2.47130775      -0.40985680       1.43380737
O       -3.24788857       1.42675972       0.29239845
C       -4.44801521       1.51436424       1.03930473
H       -0.44319153      -1.03860283      -0.19367218
H        0.68487549       0.30767250      -0.74239922
H        0.46686935      -0.06429672       0.93679237
H       -4.77795601       0.48840523       1.23891258
H       -4.35972023       2.17288208       1.96395683
H       -5.18767738       2.01137161       0.45582199
12
Properties=species:S:1:pos:R:3 name=DMC mapped_smiles="[C:1]([O:2][C:3](=[O:4])[O:5][C:6]([H:10])([H:11])[H:12])([H:7])([H:8])[H:9]" pbc="F F F"
C        0.00000000       0.00000000       0.00000000
O       -1.36197662      -0.14252663       0.52190018
C       -1.87059975      -1.34591103       0.89365005
O       -1.26615906      -2.37090492       1.00252533
O       -3.17179298      -1.19315910       1.25182343
C       -3.82835960      -2.26008797       1.98233032
H        0.71224594      -0.10375023       0.88063812
H        0.13282013      -0.73177719      -0.82979965
H       -0.01740074       0.99736595      -0.47918701
H       -3.94407272      -3.02578545       1.23720169
H       -3.33099747      -2.58761024       2.86972427
H       -4.84408379      -1.97587585       2.22175598
12
Properties=species:S:1:pos:R:3 name=DMC mapped_smiles="[C:1]([O:2][C:3](=[O:4])[O:5][C:6]([H:10])([H:11])[H:12])([H:7])([H:8])[H:9]" pbc="F F F"
C        0.79621506      -0.96863556       3.29768181
O        2.16153336      -1.04644966       2.84179115
C        2.15782547      -1.24333572       1.54003525
O        1.20074844      -1.31127357       0.79285622
O        3.41670609      -1.25561714       1.12764168
C        3.66740036      -1.14409637      -0.32340431
H        0.39640045      -1.94647408       3.24555397
H        0.77721786      -0.46285820       4.32091904
H        0.28451920      -0.21738243       2.67505074
H        4.16242981      -0.18370438      -0.46293449
H        4.37616730      -1.94935417      -0.60546875
H        2.73029327      -1.15635872      -0.90990067
12
Properties=species:S:1:pos:R:3 name=DMC mapped_smiles="[C:1]([O:2][C:3](=[O:4])[O:5][C:6]([H:10])([H:11])[H:12])([H:7])([H:8])[H:9]" pbc="F F F"
C        0.00000000       0.00000000       0.00000000
O        0.00731850      -1.46868134       0.26279068
C       -1.21085548      -2.02227020       0.27267456
O       -2.17383575      -1.50963020      -0.20754051
O       -1.08655548      -3.27007866       0.86047554
C       -2.23195267      -4.07235527       0.82074738
H       -0.40937233       0.56444740       0.88442039
H        1.07266808       0.45423317      -0.15799904
H       -0.67626953       0.27591133      -0.84643173
H       -2.71319389      -4.10158730       1.81042862
H       -2.98817825      -3.60321999       0.18533707
H       -1.93813515      -5.02558708       0.41855621
12
Properties=species:S:1:pos:R:3 name=DMC mapped_smiles="[C:1]([O:2][C:3](=[O:4])[O:5][C:6]([H:10])([H:11])[H:12])([H:7])([H:8])[H:9]" pbc="F F F"
C        4.34258461      -0.41256332      -6.90738487
O        3.22226143       0.08218002      -6.24917984
C        1.99629021      -0.58383179      -6.41612434
O        1.76939201      -1.56144714      -7.12414551
O        1.07100487       0.16332626      -5.74524498
C       -0.22664833      -0.48494720      -5.60434341
H        4.28522682      -0.13751602      -7.99097824
H        5.18898582       0.15094757      -6.49376297
H        4.42810631      -1.47264481      -6.64942360
H       -0.68351364      -0.54274368      -6.55543327
H       -0.09229279      -1.46884155      -5.22041130
H       -0.76854706       0.13462830      -4.90740776
12
Properties=species:S:1:pos:R:3 name=DMC mapped_smiles="[C:1]([O:2][C:3](=[O:4])[O:5][C:6]([H:10])([H:11])[H:12])([H:7])([H:8])[H:9]" pbc="F F F"
C        0.00000000       0.00000000       0.00000000
O       -1.19221497       0.58718109      -0.58156204
C       -1.74460411       0.02168655      -1.65997887
O       -1.11070442      -0.64073181      -2.49625206
O       -3.08782768       0.31770706      -1.77134895
C       -3.79691887      -0.04710388      -3.02733040
H        0.86844063      -0.08838654      -0.69211006
H        0.13482475       0.46491241       1.02853966
H       -0.19245720      -1.07667923       0.18091011
H       -4.01871490      -1.11766052      -2.91823578
H       -4.70762825       0.46935272      -3.22827911
H       -3.06289101       0.05585861      -3.88194084
12
Properties=species:S:1:pos:R:3 name=DMC mapped_smiles="[C:1]([O:2][C:3](=[O:4])[O:5][C:6]([H:10])([H:11])[H:12])([H:7])([H:8])[H:9]" pbc="F F F"
C        0.00000000       0.00000000       0.00000000
O       -0.42197037       1.36396408      -0.42290115
C       -0.79406357       1.50982666      -1.72144890
O       -0.75101089       0.67779160      -2.61005974
O       -1.02787781       2.82115936      -1.86481476
C       -1.34497452       3.31870270      -3.21928215
H       -0.95714188      -0.59869766      -0.11477470
H        0.71337509      -0.36035538      -0.70545387
H        0.39013672       0.03015900       1.05114937
H       -2.44340515       3.14197540      -3.42363358
H       -1.18812180       4.33873749      -3.30293846
H       -0.78333282       2.71059799      -4.01701927
12
Properties=species:S:1:pos:R:3 name=DMC mapped_smiles="[C:1]([O:2][C:3](=[O:4])[O:5][C:6]([H:10])([H:11])[H:12])([H:7])([H:8])[H:9]" pbc="F F F"
C        0.00000000       0.00000000       0.00000000
O        1.30800819       0.63008118      -0.29460907
C        2.39020729      -0.14788437      -0.73727989
O        2.36996651      -1.32404327      -1.09565163
O        3.49245644       0.54568291      -0.48245811
C        4.77309990      -0.07165527      -0.61048889
H       -0.06709480       0.16072083       1.11047745
H       -0.86247444       0.56073952      -0.33098602
H       -0.05315971      -1.04208946      -0.31937599
H        5.38429832       0.71245766      -1.07493973
H        5.14476967      -0.35369110       0.37547302
H        4.71890068      -0.93484497      -1.20981598
12
Properties=species:S:1:pos:R:3 name=DMC mapped_smiles="[C:1]([O:2][C:3](=[O:4])[O:5][C:6]([H:10])([H:11])[H:12])([H:7])([H:8])[H:9]" pbc="F F F"
C        0.73715973       1.07371140       4.28320885
O        2.03060532       0.63069534       3.81121445
C        2.06840515       0.16777802       2.58177376
O        1.13764954       0.17608261       1.74956703
O        3.30450439      -0.35373688       2.44752884
C        3.51497269      -1.27973175       1.34046173
H        0.90215683       1.46060562       5.31848907
H        0.47372818       1.92921448       3.61358452
H       -0.04167938       0.27739716       4.28934097
H        2.60593033      -1.84046173       1.25987244
H        3.56257248      -0.73079300       0.35254669
H        4.35431671      -1.83599091       1.39014626
12
Properties=species:S:1:pos:R:3 name=DMC mapped_smiles="[C:1]([O:2][C:3](=[O:4])[O:5][C:6]([H:10])([H:11])[H:12])([H:7])([H:8])[H:9]" pbc="F F F"
C        0.00000000       0.00000000       0.00000000
O       -0.76154518       1.09031296      -0.43973923
C       -2.08316612       0.81550789      -0.74163818
O       -2.69855499      -0.20916176      -0.63405991
O       -2.69678116       1.91051865      -1.22595596
C       -2.16930771       3.24629974      -0.80118179
H       -0.50987816      -0.51046181       0.87553406
H        0.08128166      -0.70568275      -0.77518845
H        1.01647568       0.34419823       0.30358887
H       -2.46860886       3.40418816       0.27700043
H       -1.10140991       3.24507904      -0.80204773
H       -2.73847008       3.94719315      -1.49622345
12
Properties=species:S:1:pos:R:3 name=DMC mapped_smiles="[C:1]([O:2][C:3](=[O:4])[O:5][C:6]([H:10])([H:11])[H:12])([H:7])([H:8])[H:9]" pbc="F F F"
C        5.39399338       0.30533981       2.50757217
O        5.60528564      -0.60876846       3.65235519
C        6.92204285      -0.92509270       3.97909164
O        7.98050117      -0.49287224       3.51316071
O        6.77119446      -1.75549889       5.00238419
C        7.99444771      -2.42413330       5.46264267
H        5.20111465       1.27866936       2.92861176
H        6.16151047       0.26908684       1.74389648
H        4.42958069       0.13251877       2.05607224
H        8.67379189      -1.74908447       5.95696640
H        7.68857765      -3.15148354       6.21189880
H        8.54532814      -2.83808327       4.67360306
12
Properties=species:S:1:pos:R:3 name=DMC mapped_smiles="[C:1]([O:2][C:3](=[O:4])[O:5][C:6]([H:10])([H:11])[H:12])([H:7])([H:8])[H:9]" pbc="F F F"
C       -3.71649170       0.73445892      -2.18693924
O       -3.93190002      -0.60972595      -1.79139328
C       -3.01107025      -1.26261520      -1.04262733
O       -1.99274063      -0.70580292      -0.56083488
O       -3.40471649      -2.57117462      -0.80102348
C       -2.46208954      -3.32578278      -0.04537392
H       -3.55218887       0.82901382      -3.27964973
H       -4.64360046       1.21736526      -2.05058289
H       -2.99856567       1.28847504      -1.53254509
H       -2.48505402      -2.94258881       1.01003838
H       -2.69810104      -4.38682938      -0.14602089
H       -1.48877335      -3.13612747      -0.45700645
12
Properties=species:S:1:pos:R:3 name=DMC mapped_smiles="[C:1]([O:2][C:3](=[O:4])[O:5][C:6]([H:10])([H:11])[H:12])([H:7])([H:8])[H:9]" pbc="F F F"
C       -3.04626846      -4.83255005      -3.95127487
O       -3.70393753      -3.62881660      -4.22362518
C       -3.35584259      -2.55124664      -3.50392914
O       -2.63235474      -2.42335892      -2.50539398
O       -4.02388000      -1.64080811      -4.18973160
C       -4.18247986      -0.29838753      -3.67541122
H       -2.17598343      -4.72532082      -3.25012207
H       -3.76396561      -5.46477318      -3.39119720
H       -2.65315628      -5.29421043      -4.84937668
H       -4.94364548      -0.22824669      -2.86142349
H       -3.27477646      -0.07592583      -3.18456268
H       -4.43674850       0.43215370      -4.42702866
12
Properties=species:S:1:pos:R:3 name=DMC mapped_smiles="[C:1]([O:2][C:3](=[O:4])[O:5][C:6]([H:10])([H:11])[H:12])([H:7])([H:8])[H:9]" pbc="F F F"
C        0.00000000       0.00000000       0.00000000
O       -0.75991058      -0.70447159      -0.98598099
C       -0.80839539      -2.12097931      -1.00730133
O       -0.41975784      -2.95975876      -0.17585754
O       -1.51903915      -2.44285965      -2.14494514
C       -1.92850876      -3.88619995      -2.15505791
H        0.13328934       1.06555176      -0.26107597
H       -0.49463272       0.01944351       1.00739288
H        0.95761108      -0.56090546       0.12145233
H       -1.23869705      -4.58450317      -2.64766693
H       -2.16540909      -4.18838120      -1.12369728
H       -2.81663132      -3.88917923      -2.77595329
12
Properties=species:S:1:pos:R:3 name=DMC mapped_smiles="[C:1]([O:2][C:3](=[O:4])[O:5][C:6]([H:10])([H:11])[H:12])([H:7])([H:8])[H:9]" pbc="F F F"
C        0.85612488      -3.00050735      -2.28124237
O        0.93400192      -1.91704178      -3.31678009
C        0.71456146      -0.57019424      -3.03468704
O        0.35469818      -0.15037918      -1.94854355
O        0.98439407       0.14608765      -4.17670822
C        0.47897720       1.53613281      -4.17002869
H        1.59099197      -2.87356186      -1.52399826
H       -0.08814240      -2.98067474      -1.76728821
H        0.93739700      -3.93541718      -2.77532959
H        0.29785156       1.85374069      -3.16336441
H        1.16963959       2.18584824      -4.70777512
H       -0.44789124       1.50088120      -4.64478302
12
Properties=species:S:1:pos:R:3 name=DMC mapped_smiles="[C:1]([O:2][C:3](=[O:4])[O:5][C:6]([H:10])([H:11])[H:12])([H:7])([H:8])[H:9]" pbc="F F F"
C        1.32171631       5.43588829       0.89646721
O        0.30776596       5.08341408      -0.04029274
C        0.37823868       3.95579147      -0.72906303
O        1.26566696       3.09090233      -0.76418114
O       -0.77278709       3.99298096      -1.49648857
C       -0.98944473       3.10760689      -2.62602043
H        1.22328186       4.87793541       1.83012009
H        2.36392593       5.20207024       0.56892395
H        1.13021851       6.51302719       0.97142601
H       -0.91839218       3.72686768      -3.52710533
H       -0.28234482       2.18199539      -2.54376221
H       -2.03763962       2.75662994      -2.59631157
12
Properties=species:S:1:pos:R:3 name=DMC mapped_smiles="[C:1]([O:2][C:3](=[O:4])[O:5][C:6]([H:10])([H:11])[H:12])([H:7])([H:8])[H:9]" pbc="F F F"
C        0.00000000       0.00000000       0.00000000
O       -0.54809952      -1.28244781       0.43539619
C       -1.31104279      -1.25057220       1.52373695
O       -1.51918411      -0.26666260       2.24279976
O       -1.74993515      -2.53010178       1.74767494
C       -2.43526459      -2.82251740       3.01349068
H        0.54915619      -0.14399719      -0.94773674
H       -0.78913116       0.78934860      -0.07324600
H        0.70095825       0.17734909       0.73754692
H       -2.78800583      -3.80686188       3.01546288
H       -1.69306564      -2.80477524       3.78972054
H       -3.13651657      -2.09004211       3.23645973
12
Properties=species:S:1:pos:R:3 name=DMC mapped_smiles="[C:1]([O:2][C:3](=[O:4])[O:5][C:6]([H:10])([H:11])[H:12])([H:7])([H:8])[H:9]" pbc="F F F"
C        6.54901505      -4.21017838      -0.92456627
O        5.89761353      -5.47903442      -0.66154099
C        4.48527527      -5.53666687      -0.87953758
O        3.74595642      -4.65556526      -1.32237434
O        4.02803040      -6.83605957      -0.62726784
C        2.67909622      -7.06863976      -0.96452904
H        7.38309479      -4.16591644      -0.26733208
H        6.88733673      -4.16699982      -2.02375603
H        5.84198761      -3.41084671      -0.67423820
H        2.12696075      -6.21446609      -0.63152885
H        2.53239441      -7.12849426      -2.01559258
H        2.35098267      -7.95559502      -0.53623772
12
Properties=species:S:1:pos:R:3 name=DMC mapped_smiles="[C:1]([O:2][C:3](=[O:4])[O:5][C:6]([H:10])([H:11])[H:12])([H:7])([H:8])[H:9]" pbc="F F F"
C        6.09631920       0.27969360      -1.11461258
O        6.38745499       1.64241409      -1.44255829
C        5.36497116       2.48236084      -1.51668930
O        4.19062042       2.22665405      -1.83926010
O        5.84169960       3.64396667      -1.07677078
C        4.94025803       4.76314163      -1.17038345
H        6.94009018      -0.34532547      -1.18091965
H        5.64838600       0.30103302      -0.10511780
H        5.28115273      -0.07884979      -1.72577286
H        5.56928635       5.62657166      -1.29414749
H        4.33773804       4.75341415      -2.09893036
H        4.41403389       4.95269775      -0.19044495
12
Properties=species:S:1:pos:R:3 name=DMC mapped_smiles="[C:1]([O:2][C:3](=[O:4])[O:5][C:6]([H:10])([H:11])[H:12])([H:7])([H:8])[H:9]" pbc="F F F"
C        0.00000000       0.00000000       0.00000000
O        0.23305130      -0.93023682      -1.09525681
C       -0.61953354      -2.00899696      -1.12291718
O       -1.67081833      -2.14873695      -0.50884628
O       -0.22395706      -2.73783302      -2.13187790
C       -0.89805603      -3.96184158      -2.34803772
H       -1.08821869       0.21321678       0.12242508
H        0.48101425      -0.50402451       0.82542038
H        0.55244064       0.85587311      -0.28406906
H       -1.98625183      -3.77571678      -2.54808044
H       -0.47207260      -4.56338120      -3.10573196
H       -1.03051758      -4.48546028      -1.37554550
12
Properties=species:S:1:pos:R:3 name=DMC mapped_smiles="[C:1]([O:2][C:3](=[O:4])[O:5][C:6]([H:10])([H:11])[H:12])([H:7])([H:8])[H:9]" pbc="F F F"
C       -1.03498459       3.39324379      -3.04997635
O       -0.85148239       4.85570717      -2.84574890
C       -0.00233078       5.27946091      -1.84238052
O        0.81843948       4.55950165      -1.22941971
O       -0.11538696       6.62174225      -1.75597382
C        0.70709610       7.18581390      -0.73381805
H       -1.90442657       3.26346397      -3.64128876
H       -0.29325104       2.87161064      -3.71753693
H       -1.02624130       2.94522476      -2.02130508
H        0.72468948       8.28857613      -0.97478485
H        0.33711624       6.95002174       0.25861740
H        1.69378662       6.84042740      -0.82367706
12
Properties=species:S:1:pos:R:3 name=DMC mapped_smiles="[C:1]([O:2][C:3](=[O:4])[O:5][C:6]([H:10])([H:11])[H:12])([H:7])([H:8])[H:9]" pbc="F F F"
C        0.00000000       0.00000000       0.00000000
O       -0.57891083       0.03741074      -1.35432625
C       -1.08156776       1.22481918      -1.83820534
O       -1.05062294       2.31711197      -1.29157448
O       -1.66099167       0.94875336      -3.00235939
C       -2.54334450       1.90980721      -3.57425117
H       -0.01193810      -1.03365517       0.23870468
H        0.96502113       0.48658371      -0.14706612
H       -0.61219025       0.59747887       0.71004105
H       -2.08367348       2.94593620      -3.51873970
H       -2.67567635       1.63416100      -4.63044930
H       -3.45803642       1.89050102      -3.04672432
12
Properties=species:S:1:pos:R:3 name=DMC mapped_smiles="[C:1]([O:2][C:3](=[O:4])[O:5][C:6]([H:10])([H:11])[H:12])([H:7])([H:8])[H:9]" pbc="F F F"
C        3.67534065      -0.56799889       2.01906586
O        4.49910355       0.60568237       2.04279518
C        4.44228554       1.49304199       1.08784103
O        3.66996574       1.52655029       0.13805389
O        5.33327293       2.44340706       1.51919174
C        5.32843971       3.73292351       0.85186577
H        2.54733658      -0.34223557       2.16984940
H        3.77314186      -1.11123466       1.04336929
H        4.08123970      -1.30123711       2.72196960
H        5.85346794       4.37133598       1.51416588
H        5.89101028       3.63100243      -0.06098938
H        4.26106834       4.01743889       0.70053673
12
Properties=species:S:1:pos:R:3 name=DMC mapped_smiles="[C:1]([O:2][C:3](=[O:4])[O:5][C:6]([H:10])([H:11])[H:12])([H:7])([H:8])[H:9]" pbc="F F F"
C        0.00000000       0.00000000       0.00000000
O        0.69923401       0.45460129      -1.30225754
C        0.27482414       0.01209259      -2.47703362
O       -0.49995232      -0.85848236      -2.75362778
O        1.19597435       0.46501923      -3.35930824
C        1.10757065      -0.05991745      -4.71364784
H       -1.06051445       0.13703537      -0.08255386
H        0.26994705      -1.04367065       0.20209503
H        0.38099098       0.65557480       0.73682976
H        2.10218239      -0.37823105      -5.03804207
H        0.39235878      -0.86333847      -4.78101540
H        0.76247025       0.67027664      -5.42470741
12
Properties=species:S:1:pos:R:3 name=DMC mapped_smiles="[C:1]([O:2][C:3](=[O:4])[O:5][C:6]([H:10])([H:11])[H:12])([H:7])([H:8])[H:9]" pbc="F F F"
C        0.00000000       0.00000000       0.00000000
O       -1.46743774      -0.16470718       0.24717331
C       -1.88247681      -1.38710403       0.43301964
O       -1.32550812      -2.43304825       0.42853355
O       -3.21480179      -1.26590729       0.73328018
C       -4.04810715      -2.43221664       0.75553322
H        0.38024521       0.91050720       0.57345772
H        0.46931076      -0.90238190       0.27976608
H        0.16381836       0.19530106      -1.02866364
H       -5.06909943      -2.07726288       0.54461288
H       -3.64440918      -3.08815384       0.13102913
H       -4.14179611      -2.86475754       1.73112488
12
Properties=species:S:1:pos:R:3 name=DMC mapped_smiles="[C:1]([O:2][C:3](=[O:4])[O:5][C:6]([H:10])([H:11])[H:12])([H:7])([H:8])[H:9]" pbc="F F F"
C        0.00000000       0.00000000       0.00000000
O       -0.23388863      -0.25155640      -1.41309166
C        0.87082100      -0.36487961      -2.14229393
O        2.01479340      -0.50870132      -1.68559647
O        0.48562050      -0.43541718      -3.41665840
C        1.57805061      -0.32604599      -4.40847397
H        0.67057991       0.94065475       0.02794838
H       -0.99345779       0.10007858       0.36452484
H        0.48789597      -0.70623398       0.67983437
H        1.15874290      -0.51380920      -5.41552544
H        1.89344215       0.66756058      -4.27177811
H        2.38043404      -1.05363083      -4.15187454
12
Properties=species:S:1:pos:R:3 name=DMC mapped_smiles="[C:1]([O:2][C:3](=[O:4])[O:5][C:6]([H:10])([H:11])[H:12])([H:7])([H:8])[H:9]" pbc="F F F"
C       -2.79159927       0.20671082      -6.44897652
O       -1.71025848       0.92886353      -7.09407234
C       -0.45036316       0.83712387      -6.58554268
O       -0.04464340       0.16859818      -5.64312172
O        0.35974503       1.48982620      -7.40257454
C        1.70333099       1.67844009      -7.01809883
H       -3.78844070       0.55595398      -6.80205727
H       -2.78905869      -0.84772110      -6.64103889
H       -2.68150330       0.36491776      -5.35182381
H        2.25006485       0.75426483      -6.70072365
H        2.22688675       2.14658737      -7.84737587
H        1.77916718       2.31253815      -6.12507820
12
Properties=species:S:1:pos:R:3 name=DMC mapped_smiles="[C:1]([O:2][C:3](=[O:4])[O:5][C:6]([H:10])([H:11])[H:12])([H:7])([H:8])[H:9]" pbc="F F F"
C        0.00000000       0.00000000       0.00000000
O        1.46823120      -0.09987259      -0.45858383
C        2.22710419      -1.15601540       0.02542114
O        1.93834305      -1.84906769       0.97412491
O        3.26515961      -1.30356789      -0.83597565
C        4.34327698      -2.27159119      -0.41152954
H       -0.60452271      -0.48730278      -0.75249100
H       -0.23805237      -0.31772614       1.01329041
H       -0.22499847       1.11801147       0.09540558
H        3.84505844      -3.25748253      -0.37710190
H        5.18436050      -2.22584724      -1.10361099
H        4.66616821      -2.00044441       0.57110977
12
Properties=species:S:1:pos:R:3 name=DMC mapped_smiles="[C:1]([O:2][C:3](=[O:4])[O:5][C:6]([H:10])([H:11])[H:12])([H:7])([H:8])[H:9]" pbc="F F F"
C        0.00000000       0.00000000       0.00000000
O        1.11072922      -0.41249657       0.83364677
C        2.31811142      -0.63195801       0.26580429
O        2.64250183      -0.22067642      -0.86204147
O        3.09899139      -1.21116829       1.21019745
C        4.54281235      -1.04268074       1.08259010
H       -0.39751816       0.91712952       0.48769760
H        0.35255814       0.32089233      -0.99239922
H       -0.76810837      -0.77889824      -0.02202034
H        4.81341934      -1.89989090       0.42835045
H        4.81221008      -0.02937889       0.83052826
H        4.94029617      -1.23498917       2.02274895
12
Properties=species:S:1:pos:R:3 name=DMC mapped_smiles="[C:1]([O:2][C:3](=[O:4])[O:5][C:6]([H:10])([H:11])[H:12])([H:7])([H:8])[H:9]" pbc="F F F"
C        0.00000000       0.00000000       0.00000000
O        1.24918365      -0.50568581      -0.61808205
C        2.42037964      -0.15971565       0.00645256
O        2.60403252       0.70482445       0.83842087
O        3.26144981      -1.06640434      -0.40286636
C        4.59967613      -1.10700989       0.08218575
H       -0.59773636       0.33268547      -0.86834335
H       -0.47116280      -0.77858543       0.57994652
H        0.21943092       0.84889793       0.66352081
H        4.63548660      -1.34176826       1.14930916
H        5.12350273      -1.85474968      -0.38968849
H        5.09620476      -0.18187714      -0.18755913
12
Properties=species:S:1:pos:R:3 name=DMC mapped_smiles="[C:1]([O:2][C:3](=[O:4])[O:5][C:6]([H:10])([H:11])[H:12])([H:7])([H:8])[H:9]" pbc="F F F"
C        0.00000000       0.00000000       0.00000000
O       -0.48816109      -0.79928970      -1.14737892
C        0.04778290      -2.06078339      -1.42697716
O        1.09842300      -2.50028610      -0.96291351
O       -0.75712967      -2.69412994      -2.30183029
C       -0.32995224      -4.03912354      -2.67412949
H       -0.62950706       0.81171417       0.25145149
H        0.07893181      -0.70263290       0.74303246
H        1.03417778       0.28132248      -0.26794434
H        0.31480598      -4.53307724      -1.85221481
H       -1.17326164      -4.62538910      -2.93087578
H        0.19982529      -3.86185837      -3.59551430
12
Properties=species:S:1:pos:R:3 name=DMC mapped_smiles="[C:1]([O:2][C:3](=[O:4])[O:5][C:6]([H:10])([H:11])[H:12])([H:7])([H:8])[H:9]" pbc="F F F"
C       -4.97141647      -2.38497543      -0.47814560
O       -5.16486549      -3.31143570      -1.56529236
C       -4.17812920      -3.51970673      -2.45367432
O       -3.02259636      -3.09165382      -2.39421082
O       -4.72039223      -4.24649239      -3.49287033
C       -3.88449287      -4.54195976      -4.58034897
H       -5.66456032      -2.64986610       0.32164001
H       -3.94921684      -2.42507935      -0.11647797
H       -5.22566795      -1.39792252      -0.82863617
H       -3.35654449      -3.65361977      -4.96821594
H       -3.10327911      -5.22819901      -4.18244171
H       -4.42792511      -5.14912224      -5.28988647
12
Properties=species:S:1:pos:R:3 name=DMC mapped_smiles="[C:1]([O:2][C:3](=[O:4])[O:5][C:6]([H:10])([H:11])[H:12])([H:7])([H:8])[H:9]" pbc="F F F"
C        0.00000000       0.00000000       0.00000000
O       -0.02909660      -1.25272369       0.74421310
C       -0.88548851      -1.11374092       1.79709816
O       -1.24462128      -0.09408951       2.36166573
O       -1.22987938      -2.36503029       2.18596840
C       -2.15682793      -2.51973915       3.34943962
H       -0.95565224       0.18931198      -0.55009651
H        0.04532051       0.85701752       0.63064003
H        0.80125618      -0.02360535      -0.77011299
H       -1.67335320      -2.21642113       4.27160263
H       -3.01093674      -1.87973022       3.20900536
H       -2.47307777      -3.58147240       3.38147736
12
Properties=species:S:1:pos:R:3 name=DMC mapped_smiles="[C:1]([O:2][C:3](=[O:4])[O:5][C:6]([H:10])([H:11])[H:12])([H:7])([H:8])[H:9]" pbc="F F F"
C        0.00000000       0.00000000       0.00000000
O        1.34387589      -0.00943947      -0.64892769
C        1.82412910      -1.34022713      -0.94686127
O        1.24369240      -2.46000481      -0.86619568
O        3.01502037      -1.01310921      -1.54609108
C        3.87564659      -2.22187424      -1.73467636
H       -0.51342010      -0.94420052       0.15062523
H        0.19815445       0.43684578       0.99858475
H       -0.63033104       0.61847496      -0.72616577
H        4.84485054      -1.85850334      -2.10366631
H        3.87754822      -2.81777954      -0.80257797
H        3.45937347      -2.84154892      -2.49546432
12
Properties=species:S:1:pos:R:3 name=DMC mapped_smiles="[C:1]([O:2][C:3](=[O:4])[O:5][C:6]([H:10])([H:11])[H:12])([H:7])([H:8])[H:9]" pbc="F F F"
C        0.00000000       0.00000000       0.00000000
O        0.66639137      -1.36228752       0.09594345
C        0.41571617      -2.18292809      -0.95733643
O       -0.00183678      -1.79889679      -2.02306747
O        0.77209282      -3.49893379      -0.56787491
C        0.71066475      -4.49109840      -1.62749481
H        0.12515640       0.52989960       0.93615723
H        0.39775085       0.66661644      -0.84533310
H       -1.02082634      -0.14205170      -0.18964767
H       -0.08016968      -4.21233559      -2.35042572
H        1.66539001      -4.52139473      -2.18626404
H        0.47968292      -5.45006752      -1.11967468
12
Properties=species:S:1:pos:R:3 name=DMC mapped_smiles="[C:1]([O:2][C:3](=[O:4])[O:5][C:6]([H:10])([H:11])[H:12])([H:7])([H:8])[H:9]" pbc="F F F"
C        0.00000000       0.00000000       0.00000000
O       -0.60401344       0.11086655       1.38454819
C        0.20342064       0.50339890       2.32199860
O        1.41403198       0.40935516       2.33567047
O       -0.57770920       1.01435089       3.37549591
C        0.22510529       1.28384399       4.57391739
H        0.52450371       0.87597656      -0.20048904
H        0.60600662      -0.90337753      -0.10557556
H       -0.80876160      -0.02595139      -0.69051361
H       -0.34721565       1.70307159       5.41089249
H        0.82695580       0.31408310       4.88085175
H        0.95880508       2.12327194       4.20396042
12
Properties=species:S:1:pos:R:3 name=DMC mapped_smiles="[C:1]([O:2][C:3](=[O:4])[O:5][C:6]([H:10])([H:11])[H:12])([H:7])([H:8])[H:9]" pbc="F F F"
C        6.32894325      -4.77694511      -0.55513954
O        5.86989594      -3.56420326       0.08816338
C        5.14823723      -2.66741371      -0.59734535
O        4.70622826      -2.79421616      -1.73679352
O        5.11957550      -1.55197144       0.26494026
C        4.62296867      -0.26673317      -0.33393288
H        5.66647530      -5.01837921      -1.34354973
H        7.33797073      -4.50138283      -0.86808777
H        6.33466339      -5.56276894       0.22190285
H        4.63448524       0.51744843       0.42052078
H        5.34942245       0.06357384      -1.18474388
H        3.60604477      -0.45342445      -0.64417076
12
Properties=species:S:1:pos:R:3 name=DMC mapped_smiles="[C:1]([O:2][C:3](=[O:4])[O:5][C:6]([H:10])([H:11])[H:12])([H:7])([H:8])[H:9]" pbc="F F F"
C        0.00000000       0.00000000       0.00000000
O       -0.43484688       1.36047363       0.17079926
C       -0.62559319       2.13146591      -0.87502670
O       -0.32582092       1.81825066      -2.04263687
O       -1.18488121       3.27911949      -0.44306183
C       -1.68481827       4.10208702      -1.51608276
H       -0.63990593      -0.48543549       0.79929733
H       -0.27738380      -0.31002235      -1.01763535
H        1.06969643      -0.10386276       0.20690155
H       -2.70814705       4.12377739      -1.53439713
H       -1.32847214       5.13298225      -1.28106308
H       -1.25633812       3.70470047      -2.46223831
