12
Properties=species:S:1:pos:R:3 name=DMC mapped_smiles="[C:1]([O:2][C:3](=[O:4])[O:5][C:6]([H:10])([H:11])[H:12])([H:7])([H:8])[H:9]" pbc="F F F"
C        0.00000000       0.00000000       0.00000000
O        0.52391815       1.31753922      -0.09109879
C        0.65940094       1.87444878      -1.34627914
O        0.35611725       1.27785301      -2.35404587
O        1.17888641       3.07326317      -1.35411835
C        1.55656433       3.69392586      -2.65118408
H        0.69476700      -0.61416817      -0.56515884
H       -0.08586884      -0.35396385       1.02127457
H       -0.97923660       0.06775856      -0.53585434
H        0.78271103       3.26177025      -3.30320740
H        1.40334320       4.77105522      -2.60380936
H        2.58917236       3.37654686      -2.93084717
12
Properties=species:S:1:pos:R:3 name=DMC mapped_smiles="[C:1]([O:2][C:3](=[O:4])[O:5][C:6]([H:10])([H:11])[H:12])([H:7])([H:8])[H:9]" pbc="F F F"
C       -3.47900772       0.51572800       2.63358498
O       -3.84334946       1.27530670       1.46117783
C       -4.25701523       2.51983643       1.57964897
O       -4.07464218       3.24545670       2.51216888
O       -4.84848785       2.84056473       0.43345451
C       -5.30913544       4.13581467       0.14930153
H       -2.97649002       1.21338272       3.31092453
H       -4.38862991       0.12187195       3.12764931
H       -2.84373474      -0.37978363       2.47710419
H       -4.56689072       4.87326813       0.15233612
H       -5.80981445       4.28453064      -0.80312538
H       -6.01623154       4.43160629       0.95627022
12
Properties=species:S:1:pos:R:3 name=DMC mapped_smiles="[C:1]([O:2][C:3](=[O:4])[O:5][C:6]([H:10])([H:11])[H:12])([H:7])([H:8])[H:9]" pbc="F F F"
C       -7.75817299      -1.66448784       2.35771942
O       -7.20565987      -0.80301476       3.33320045
C       -5.84577370      -0.62873459       3.44214439
O       -4.96730995      -1.14129448       2.80420685
O       -5.53772163       0.10109901       4.54104424
C       -4.13485909       0.35140419       4.75485992
H       -7.91295052      -0.97831154       1.52399254
H       -7.07410622      -2.37747955       2.09564972
H       -8.78325081      -2.02335930       2.61963654
H       -4.14418221       1.10774803       5.49581337
H       -3.77408791      -0.57768059       5.20996857
H       -3.67620277       0.59770393       3.73808479
12
Properties=species:S:1:pos:R:3 name=DMC mapped_smiles="[C:1]([O:2][C:3](=[O:4])[O:5][C:6]([H:10])([H:11])[H:12])([H:7])([H:8])[H:9]" pbc="F F F"
C        2.38518715      -6.69936180       1.52260208
O        1.61716270      -6.90198326       2.71483994
C        0.43792534      -6.21847534       2.86387634
O        0.00979996      -5.42894173       2.04492950
O       -0.18199348      -6.51061440       4.01442337
C       -1.36638451      -5.67135048       4.29273605
H        1.79125214      -6.49267960       0.65977478
H        2.84517097      -5.72891426       1.72895050
H        3.13922882      -7.43468285       1.24481964
H       -1.54095268      -5.52104378       5.36009598
H       -1.37837410      -4.73729134       3.73788071
H       -2.17476845      -6.34373665       3.86378098
12
Properties=species:S:1:pos:R:3 name=DMC mapped_smiles="[C:1]([O:2][C:3](=[O:4])[O:5][C:6]([H:10])([H:11])[H:12])([H:7])([H:8])[H:9]" pbc="F F F"
C        0.07064438       2.64203453      -2.42881966
O        0.55401230       1.79994392      -3.42860985
C        1.07731628       0.61680031      -2.94899750
O        0.95627213       0.30351830      -1.77604485
O        1.39661026      -0.19964027      -3.98823929
C        1.95427704      -1.54519272      -3.55211830
H        0.09402847       3.68750572      -2.79390526
H       -0.98614502       2.39391899      -2.38267136
H        0.64048767       2.58883095      -1.48714638
H        2.94168854      -1.43733978      -3.06407166
H        1.23675156      -2.00885010      -2.89118576
H        2.06290817      -2.12018394      -4.45336151
12
Properties=species:S:1:pos:R:3 name=DMC mapped_smiles="[C:1]([O:2][C:3](=[O:4])[O:5][C:6]([H:10])([H:11])[H:12])([H:7])([H:8])[H:9]" pbc="F F F"
C        2.67533112       3.23093414      -2.82309914
O        1.60129547       3.83252907      -2.13265038
C        1.56942749       3.53663826      -0.81559181
O        2.43328094       2.82289696      -0.31661224
O        0.63259697       4.20142174      -0.07514381
C        0.46052742       3.75861549       1.30738449
H        2.54685020       3.51413918      -3.93123627
H        3.62925720       3.64970398      -2.49197960
H        2.64647293       2.22584915      -2.65557671
H       -0.51862335       3.93504333       1.53928185
H        0.73903465       2.73163033       1.36294746
H        1.08029366       4.37027931       1.93328667
12
Properties=species:S:1:pos:R:3 name=DMC mapped_smiles="[C:1]([O:2][C:3](=[O:4])[O:5][C:6]([H:10])([H:11])[H:12])([H:7])([H:8])[H:9]" pbc="F F F"
C        0.00000000       0.00000000       0.00000000
O        1.15690422       0.08034515      -0.85957336
C        1.19079018       0.84023285      -2.00043297
O        0.26955986       1.50560760      -2.48900795
O        2.37217903       0.50101852      -2.58954430
C        2.81005287       1.32569504      -3.67517662
H       -0.82156563      -0.64929962      -0.37570381
H        0.37644768      -0.38784409       0.95355797
H       -0.41409683       0.99769592       0.08595085
H        3.23528099       2.21671677      -3.28230286
H        3.54272270       0.79346466      -4.29537392
H        1.98652458       1.66003036      -4.30127144
12
Properties=species:S:1:pos:R:3 name=DMC mapped_smiles="[C:1]([O:2][C:3](=[O:4])[O:5][C:6]([H:10])([H:11])[H:12])([H:7])([H:8])[H:9]" pbc="F F F"
C        2.29934120      -4.41776657      -6.53413582
O        2.39673424      -4.48517609      -5.12487411
C        1.51177025      -3.89023209      -4.34528923
O        0.75253868      -2.94271851      -4.58299446
O        1.40837669      -4.59281921      -3.18573189
C        0.70975304      -3.91543579      -2.17137909
H        1.25321007      -4.84853363      -6.78836632
H        2.35949516      -3.34464645      -6.84486389
H        3.11224747      -4.95453262      -6.93337250
H       -0.23095131      -3.59867096      -2.70690918
H        0.52885628      -4.66159058      -1.42626381
H        1.31234741      -3.11972809      -1.72378731
12
Properties=species:S:1:pos:R:3 name=DMC mapped_smiles="[C:1]([O:2][C:3](=[O:4])[O:5][C:6]([H:10])([H:11])[H:12])([H:7])([H:8])[H:9]" pbc="F F F"
C        0.75849152       0.74506760      -6.76832390
O        0.26461411      -0.35204315      -7.49510193
C       -0.45151520      -1.32810211      -6.72131157
O       -0.65853882      -1.29284286      -5.52573013
O       -0.72296524      -2.34723663      -7.57995415
C       -1.50658035      -3.34188461      -7.00668144
H        1.07830429       1.47024536      -7.51552391
H        0.05228424       1.16575241      -6.07528877
H        1.65772629       0.46970749      -6.27638817
H       -1.55503464      -4.14099503      -7.68622208
H       -1.14034653      -3.72510529      -6.01777077
H       -2.52540970      -2.86985016      -6.99067497
12
Properties=species:S:1:pos:R:3 name=DMC mapped_smiles="[C:1]([O:2][C:3](=[O:4])[O:5][C:6]([H:10])([H:11])[H:12])([H:7])([H:8])[H:9]" pbc="F F F"
C        4.95360374      -6.12270546      -2.80225182
O        4.50881767      -6.22759438      -1.42916489
C        3.83053017      -5.16015053      -0.97602081
O        3.25587654      -4.29761696      -1.63627243
O        3.88728523      -5.21823311       0.41912842
C        3.25560951      -4.11565590       1.16595459
H        4.11513710      -6.65784645      -3.36037636
H        5.08411980      -5.01004219      -2.98456955
H        5.88298607      -6.61499214      -2.97152901
H        2.59072685      -4.51526833       1.98228836
H        4.00066566      -3.53515816       1.68792725
H        2.67696953      -3.41815376       0.58531952
12
Properties=species:S:1:pos:R:3 name=DMC mapped_smiles="[C:1]([O:2][C:3](=[O:4])[O:5][C:6]([H:10])([H:11])[H:12])([H:7])([H:8])[H:9]" pbc="F F F"
C        3.02745819       1.92403412      -0.78411293
O        2.13158417       2.99021530      -0.44669533
C        0.81959152       2.78974152      -0.32631874
O        0.12722015       1.84140015      -0.48141670
O        0.41184616       3.98256302       0.00191498
C       -0.93361282       4.08698654       0.29181671
H        2.45793915       1.00910187      -1.00998878
H        3.65687561       2.12707138      -1.68563271
H        3.68563080       1.76261902       0.07667542
H       -1.12030411       3.50123215       1.17937851
H       -1.31546402       5.04317474       0.33749771
H       -1.51914978       3.68445587      -0.54330635
12
Properties=species:S:1:pos:R:3 name=DMC mapped_smiles="[C:1]([O:2][C:3](=[O:4])[O:5][C:6]([H:10])([H:11])[H:12])([H:7])([H:8])[H:9]" pbc="F F F"
C        1.42232895       5.19551659      -1.23101807
O        1.79547501       4.41526031      -0.09645462
C        1.07888794       4.52596474       1.05357361
O       -0.02344894       5.03130341       1.11949921
O        1.72763824       3.92937660       2.06798172
C        1.14859581       4.05338287       3.43667984
H        2.12699890       4.85558701      -2.03850174
H        0.48494148       4.98119736      -1.62734604
H        1.62849808       6.27650261      -1.11305618
H        1.87699509       4.39190865       4.12381363
H        0.29779625       4.76152992       3.42035294
H        0.85205269       3.16341591       3.80670547
12
Properties=species:S:1:pos:R:3 name=DMC mapped_smiles="[C:1]([O:2][C:3](=[O:4])[O:5][C:6]([H:10])([H:11])[H:12])([H:7])([H:8])[H:9]" pbc="F F F"
C        0.00000000       0.00000000       0.00000000
O        0.66275787      -1.10942650       0.56103516
C        1.36980820      -0.92843819       1.68132019
O        1.50123215       0.11990738       2.31949615
O        1.92290878      -2.10486984       2.08728790
C        2.83964920      -2.08225441       3.20249557
H        0.73440933       0.74144363      -0.21004868
H       -0.58829498      -0.38054085      -0.81637955
H       -0.66243362       0.43390846       0.76596069
H        3.77555466      -2.61580467       2.91351700
H        2.93919754      -1.06896400       3.50004578
H        2.38695145      -2.67011070       4.00368118
12
Properties=species:S:1:pos:R:3 name=DMC mapped_smiles="[C:1]([O:2][C:3](=[O:4])[O:5][C:6]([H:10])([H:11])[H:12])([H:7])([H:8])[H:9]" pbc="F F F"
C       -1.31716919       2.63330841       2.36861992
O       -1.37133408       1.49932480       3.23171043
C       -0.72863770       0.35991669       2.89819527
O       -0.05723572       0.22052383       1.89767647
O       -0.93746948      -0.52318954       3.90740395
C       -0.16081238      -1.79680252       3.82493401
H       -0.42443848       3.20564270       2.61400414
H       -1.10621262       2.30044556       1.32801628
H       -2.30604553       3.14261246       2.36112785
H       -0.58896637      -2.59178925       4.46418571
H       -0.23847580      -2.04375839       2.76095772
H        0.91837692      -1.57061386       4.11762810
12
Properties=species:S:1:pos:R:3 name=DMC mapped_smiles="[C:1]([O:2][C:3](=[O:4])[O:5][C:6]([H:10])([H:11])[H:12])([H:7])([H:8])[H:9]" pbc="F F F"
C        0.00000000       0.00000000       0.00000000
O        1.13579941      -0.92177391       0.12210464
C        0.83011627      -2.23645973      -0.08223724
O       -0.28353500      -2.69736099      -0.24116135
O        1.96408463      -2.90466309       0.05014801
C        1.96086884      -4.31333160      -0.02396774
H        0.31447983       1.02716064       0.32789612
H       -0.22747421       0.04692841      -1.08744431
H       -0.87075043      -0.45257187       0.45503235
H        2.44715500      -4.52321434      -0.99832535
H        2.45837021      -4.74828911       0.86224747
H        0.95150375      -4.57149124      -0.12512589
12
Properties=species:S:1:pos:R:3 name=DMC mapped_smiles="[C:1]([O:2][C:3](=[O:4])[O:5][C:6]([H:10])([H:11])[H:12])([H:7])([H:8])[H:9]" pbc="F F F"
C        2.39420319      -5.48522568       4.37546730
O        3.45031738      -4.66528320       3.84974098
C        3.27482605      -4.28265381       2.56557083
O        2.27424240      -4.33396912       1.86681366
O        4.41291046      -3.69210815       2.03315163
C        4.32719421      -3.25297928       0.62132072
H        2.82455826      -6.26758194       5.00185204
H        1.95252991      -4.77274704       5.02943802
H        1.72563934      -5.97369003       3.63468742
H        4.53836823      -4.13195801      -0.02959251
H        3.28088760      -2.92003250       0.47327423
H        5.15322113      -2.51321411       0.52955246
12
Properties=species:S:1:pos:R:3 name=DMC mapped_smiles="[C:1]([O:2][C:3](=[O:4])[O:5][C:6]([H:10])([H:11])[H:12])([H:7])([H:8])[H:9]" pbc="F F F"
C       -0.35940933       5.42583084      -2.82799530
O        0.71303177       4.62168121      -3.15891647
C        1.50265121       4.09661484      -2.19535065
O        1.37997818       4.17613983      -0.97352219
O        2.47272873       3.47188568      -2.90741348
C        3.45985413       2.78922653      -2.06904602
H       -0.75904083       5.82239151      -3.75501251
H       -1.01904297       4.80945969      -2.27006149
H       -0.02694321       6.29714966      -2.21300507
H        2.93965530       2.01369858      -1.49348831
H        4.21558762       2.34832764      -2.68059158
H        3.96471786       3.43725586      -1.29900742
12
Properties=species:S:1:pos:R:3 name=DMC mapped_smiles="[C:1]([O:2][C:3](=[O:4])[O:5][C:6]([H:10])([H:11])[H:12])([H:7])([H:8])[H:9]" pbc="F F F"
C        0.00000000       0.00000000       0.00000000
O        1.19672012      -0.58688164       0.53465843
C        2.37498093      -0.38595200      -0.15497017
O        2.43753433       0.25167847      -1.17877769
O        3.51338196      -0.85046005       0.54754066
C        4.89857864      -0.73176956       0.08852196
H       -0.66062164       0.06946373       0.87948799
H        0.19893646       0.95218468      -0.41143227
H       -0.49285126      -0.57335091      -0.84068489
H        5.00939178      -0.02904892      -0.76926613
H        5.55261993      -0.46655464       0.95516968
H        5.08747482      -1.75511360      -0.31991386
12
Properties=species:S:1:pos:R:3 name=DMC mapped_smiles="[C:1]([O:2][C:3](=[O:4])[O:5][C:6]([H:10])([H:11])[H:12])([H:7])([H:8])[H:9]" pbc="F F F"
C       -2.10007858       4.83068085       3.91440010
O       -0.75032043       5.00265312       3.44420052
C       -0.32765961       4.16706276       2.42400551
O       -1.00647736       3.26152039       1.95496941
O        0.92412186       4.43517876       2.17864418
C        1.72456360       3.64958000       1.26056099
H       -2.23561478       5.30765343       4.85217857
H       -2.70154190       5.22391701       3.14391136
H       -2.32064056       3.75868797       4.02269936
H        1.55733490       2.63841820       1.52650642
H        1.34402847       3.77788544       0.25009727
H        2.78740692       3.88936615       1.28347206
12
Properties=species:S:1:pos:R:3 name=DMC mapped_smiles="[C:1]([O:2][C:3](=[O:4])[O:5][C:6]([H:10])([H:11])[H:12])([H:7])([H:8])[H:9]" pbc="F F F"
C        0.00000000       0.00000000       0.00000000
O        0.10853577       0.15685081      -1.41688728
C        0.82378769      -0.66340065      -2.19571495
O        1.68660355      -1.39833069      -1.70858383
O        0.57361603      -0.46810913      -3.51150894
C        1.55976105      -1.00628281      -4.43484306
H       -0.29799652      -0.98797417       0.31237984
H        0.91278458       0.26798820       0.50664330
H       -0.84648895       0.65015221       0.36642647
H        1.49765015      -2.05498886      -4.55736351
H        1.39244843      -0.58577919      -5.39394951
H        2.53848267      -0.74734688      -4.09449768
12
Properties=species:S:1:pos:R:3 name=DMC mapped_smiles="[C:1]([O:2][C:3](=[O:4])[O:5][C:6]([H:10])([H:11])[H:12])([H:7])([H:8])[H:9]" pbc="F F F"
C        0.00000000       0.00000000       0.00000000
O       -0.13357353       1.24616623       0.81524658
C        0.48578835       2.43371582       0.41891861
O        0.97973061       2.66295624      -0.65493393
O        0.29465866       3.27263260       1.39334869
C        0.97797775       4.55907440       1.22002411
H        0.44503021       0.22716904      -0.94928360
H        0.65452003      -0.69016647       0.54434586
H       -1.00388145      -0.39809418      -0.24387741
H        0.67251396       4.89704895       0.23871994
H        0.56087685       5.18719101       1.93699265
H        2.01939964       4.31225204       1.25872421
12
Properties=species:S:1:pos:R:3 name=DMC mapped_smiles="[C:1]([O:2][C:3](=[O:4])[O:5][C:6]([H:10])([H:11])[H:12])([H:7])([H:8])[H:9]" pbc="F F F"
C       -0.97735214      -6.87764931       2.93271255
O       -1.44130325      -7.29268456       1.66431046
C       -1.96748734      -6.32082748       0.80741119
O       -1.93019104      -5.10086632       0.84415436
O       -2.68974686      -6.99763298      -0.17041016
C       -3.41589737      -6.17612839      -1.08578873
H       -1.73399353      -6.48325920       3.54909515
H       -0.53335190      -7.78875351       3.26711655
H       -0.26232910      -6.07319450       2.84565735
H       -3.95070648      -5.35993195      -0.55803680
H       -2.71217346      -5.64045715      -1.75613022
H       -4.08651733      -6.78390884      -1.64547348
12
Properties=species:S:1:pos:R:3 name=DMC mapped_smiles="[C:1]([O:2][C:3](=[O:4])[O:5][C:6]([H:10])([H:11])[H:12])([H:7])([H:8])[H:9]" pbc="F F F"
C        0.00000000       0.00000000       0.00000000
O        0.95595551      -0.58192635      -0.91702271
C        1.83009720       0.06743050      -1.63932800
O        2.15082932       1.23223114      -1.53530884
O        2.37983704      -0.87701797      -2.51153183
C        3.37338257      -0.33717918      -3.35466766
H       -0.31890106       0.95933914      -0.34288406
H       -0.86053848      -0.65277863       0.05642700
H        0.43387222       0.20272064       0.93379211
H        4.18303299       0.22673225      -2.79476547
H        3.74432755      -1.12848091      -3.99282074
H        2.77168274       0.32251167      -3.95543289
12
Properties=species:S:1:pos:R:3 name=DMC mapped_smiles="[C:1]([O:2][C:3](=[O:4])[O:5][C:6]([H:10])([H:11])[H:12])([H:7])([H:8])[H:9]" pbc="F F F"
C        3.99447823       1.28028488      -6.42849922
O        3.30882454       2.49180412      -6.87983131
C        2.01358223       2.69637871      -6.78998756
O        1.14628029       1.88553619      -6.46341133
O        1.66771507       3.87045860      -7.40661049
C        0.29019356       4.51184845      -7.13085365
H        3.64553261       0.53512192      -7.13757515
H        5.06225395       1.42592049      -6.60935402
H        3.63350487       0.94965172      -5.48392677
H        0.31459236       5.60276031      -7.20003700
H       -0.44771957       4.06051826      -7.76589394
H        0.03163338       4.17929840      -6.17066383
12
Properties=species:S:1:pos:R:3 name=DMC mapped_smiles="[C:1]([O:2][C:3](=[O:4])[O:5][C:6]([H:10])([H:11])[H:12])([H:7])([H:8])[H:9]" pbc="F F F"
C        0.00000000       0.00000000       0.00000000
O       -0.39197159      -0.63995361      -1.22310638
C       -1.64944077      -1.17901039      -1.33560753
O       -2.35663223      -1.56648254      -0.46486664
O       -1.81141663      -1.37681198      -2.70135880
C       -3.07074928      -1.99963760      -3.15317154
H        0.08600998      -0.74994278       0.79961014
H        0.99868011       0.45701599      -0.19844437
H       -0.75994492       0.77354240       0.26804733
H       -2.67981720      -2.73147583      -3.83975983
H       -3.55288887      -2.43658257      -2.30743408
H       -3.74508095      -1.29111290      -3.60961723
12
Properties=species:S:1:pos:R:3 name=DMC mapped_smiles="[C:1]([O:2][C:3](=[O:4])[O:5][C:6]([H:10])([H:11])[H:12])([H:7])([H:8])[H:9]" pbc="F F F"
C       -5.60403824      -3.34086609      -2.67960167
O       -5.20396614      -3.69843292      -1.31236649
C       -3.97434044      -3.26024246      -0.90232468
O       -3.29665565      -2.43066025      -1.53213310
O       -3.63026619      -3.97040558       0.18379784
C       -2.33640480      -3.57889557       0.69585609
H       -6.67210579      -3.52541733      -2.74694252
H       -5.29140091      -2.31250381      -2.84774208
H       -5.02741051      -3.96179581      -3.31819344
H       -1.61092567      -3.57871628      -0.12582016
H       -2.38448334      -2.60499573       1.10782051
H       -2.08225822      -4.29787064       1.48648262
12
Properties=species:S:1:pos:R:3 name=DMC mapped_smiles="[C:1]([O:2][C:3](=[O:4])[O:5][C:6]([H:10])([H:11])[H:12])([H:7])([H:8])[H:9]" pbc="F F F"
C        0.59686661      -1.34929276      -4.09482765
O        0.68289185      -2.77860260      -4.31072235
C        0.74907303      -3.53419495      -3.25941467
O        0.52430344      -3.24798965      -2.08327866
O        1.23667908      -4.73315048      -3.61608696
C        1.28844070      -5.84594727      -2.58759499
H        0.93571472      -0.96316910      -5.02631187
H       -0.43100357      -1.02014542      -3.97180367
H        1.23550797      -1.02043152      -3.25770187
H        1.73765945      -5.48204422      -1.63427734
H        0.24326706      -6.12946701      -2.55413818
H        1.89381027      -6.66997147      -3.00074959
12
Properties=species:S:1:pos:R:3 name=DMC mapped_smiles="[C:1]([O:2][C:3](=[O:4])[O:5][C:6]([H:10])([H:11])[H:12])([H:7])([H:8])[H:9]" pbc="F F F"
C        2.76904297       3.25639343      -2.24360085
O        2.89359093       3.28749466      -0.76693535
C        3.90412331       2.56609344      -0.23240471
O        4.06927490       1.37174225      -0.49896240
O        4.46494484       3.28181458       0.69439888
C        5.27467346       2.54026413       1.63357353
H        2.44269180       2.18428802      -2.47972488
H        1.92388344       3.95050430      -2.43044090
H        3.71912193       3.52119827      -2.72754478
H        4.61462021       2.10675049       2.39563560
H        5.86357117       1.82144928       1.01254845
H        5.94865990       3.24579239       2.14992714
12
Properties=species:S:1:pos:R:3 name=DMC mapped_smiles="[C:1]([O:2][C:3](=[O:4])[O:5][C:6]([H:10])([H:11])[H:12])([H:7])([H:8])[H:9]" pbc="F F F"
C        0.00000000       0.00000000       0.00000000
O       -0.88087845      -0.97962570      -0.63650322
C       -0.60741425      -1.26356125      -1.96181679
O        0.40999603      -0.85807419      -2.51959419
O       -1.67544937      -1.91738510      -2.47681618
C       -1.69139481      -2.36268234      -3.89454079
H       -0.42378616       0.15253448       0.95172691
H        0.96015167      -0.37783432       0.13009834
H        0.14673233       0.89914703      -0.65095711
H       -2.19800949      -1.67393112      -4.51667976
H       -0.64442062      -2.45763397      -4.24793434
H       -2.22332001      -3.30551529      -3.90838814
12
Properties=species:S:1:pos:R:3 name=DMC mapped_smiles="[C:1]([O:2][C:3](=[O:4])[O:5][C:6]([H:10])([H:11])[H:12])([H:7])([H:8])[H:9]" pbc="F F F"
C        1.18221283      -4.74847031      -1.21458435
O        1.43873215      -6.05860329      -0.57726288
C        1.61880493      -6.04937935       0.78081512
O        1.70375443      -4.99313164       1.41835403
O        1.65838242      -7.34580231       1.11703491
C        1.46094513      -7.67784309       2.47630692
H        0.67353058      -3.95395470      -0.58488464
H        2.16826248      -4.45604897      -1.46161652
H        0.59108353      -4.94495392      -2.12878799
H        2.09631348      -7.00044441       3.00840759
H        0.40896606      -7.56789207       2.63973618
H        1.67864990      -8.68718147       2.61100388
12
Properties=species:S:1:pos:R:3 name=DMC mapped_smiles="[C:1]([O:2][C:3](=[O:4])[O:5][C:6]([H:10])([H:11])[H:12])([H:7])([H:8])[H:9]" pbc="F F F"
C        6.54719162       3.77857208      -2.02658272
O        5.21530151       4.08335686      -1.60924721
C        4.22131729       3.14658165      -1.79007912
O        4.36175919       1.96754074      -2.25637436
O        3.10190964       3.75654602      -1.27552795
C        1.87136078       3.06864738      -1.51003075
H        7.17931747       4.69393158      -2.13353157
H        7.01373672       3.02828407      -1.34022903
H        6.48979187       3.35791397      -3.07567787
H        1.93183517       2.16847610      -0.91371727
H        1.01026535       3.75861359      -1.30255699
H        1.88646698       2.84207153      -2.57514954
12
Properties=species:S:1:pos:R:3 name=DMC mapped_smiles="[C:1]([O:2][C:3](=[O:4])[O:5][C:6]([H:10])([H:11])[H:12])([H:7])([H:8])[H:9]" pbc="F F F"
C        6.35916710       3.21392632       2.88751030
O        6.79856110       3.55309486       1.50215149
C        5.87594223       3.38406181       0.53783607
O        4.69489098       3.13080025       0.73941994
O        6.47222137       3.65846062      -0.70792198
C        5.59130478       4.27352905      -1.71763420
H        5.38669586       3.56166458       3.11933517
H        6.29564285       2.11976814       3.04410744
H        7.08825684       3.67526245       3.54565811
H        5.14762878       5.15116119      -1.25495529
H        6.13144875       4.50847626      -2.63932419
H        4.81644249       3.53246689      -2.00319290
12
Properties=species:S:1:pos:R:3 name=DMC mapped_smiles="[C:1]([O:2][C:3](=[O:4])[O:5][C:6]([H:10])([H:11])[H:12])([H:7])([H:8])[H:9]" pbc="F F F"
C        4.71308899      -5.59408951      -3.58683395
O        5.79657745      -5.53230286      -2.57133102
C        6.95247459      -6.07276917      -2.94333839
O        7.15950584      -6.82826614      -3.86023903
O        7.83609581      -5.56563950      -2.02369499
C        9.20804405      -6.10914230      -2.24950218
H        3.95100021      -4.79681778      -3.46152306
H        5.03359413      -5.53437805      -4.68241310
H        4.32814026      -6.62469101      -3.50012589
H        9.70634651      -6.11781693      -1.30614471
H        9.11324501      -7.14212418      -2.73357964
H        9.56398582      -5.41972733      -2.96675491
12
Properties=species:S:1:pos:R:3 name=DMC mapped_smiles="[C:1]([O:2][C:3](=[O:4])[O:5][C:6]([H:10])([H:11])[H:12])([H:7])([H:8])[H:9]" pbc="F F F"
C        0.00000000       0.00000000       0.00000000
O       -0.03588295      -0.84769249       1.17603302
C       -0.36746025      -2.13338470       0.88647079
O       -0.72945976      -2.64804649      -0.14100266
O       -0.13953590      -2.83535957       2.09303284
C       -0.73736954      -4.14322662       2.13763428
H       -0.38466835       0.94749069       0.35010529
H        1.07906532       0.24849701      -0.37167740
H       -0.54598236      -0.55822945      -0.70649338
H       -0.27144241      -4.88112068       1.44329834
H       -0.58202553      -4.55347252       3.13380432
H       -1.79915237      -4.07561684       1.82112885
12
Properties=species:S:1:pos:R:3 name=DMC mapped_smiles="[C:1]([O:2][C:3](=[O:4])[O:5][C:6]([H:10])([H:11])[H:12])([H:7])([H:8])[H:9]" pbc="F F F"
C       -3.37010384       5.09780312       1.11967850
O       -1.97943115       5.40632439       1.11526299
C       -1.06923866       4.72763634       1.77634621
O       -1.22896385       3.58759117       2.20077133
O       -0.02218437       5.67978096       2.03750801
C        1.09905815       5.17910385       2.77750397
H       -3.94942665       6.03133965       0.90452194
H       -3.49834251       4.29873657       0.35187340
H       -3.59900093       4.71219254       2.13389015
H        1.61490822       4.46459389       2.19816399
H        1.76466751       6.01390648       3.10781670
H        0.70160484       4.66618156       3.69511414
12
Properties=species:S:1:pos:R:3 name=DMC mapped_smiles="[C:1]([O:2][C:3](=[O:4])[O:5][C:6]([H:10])([H:11])[H:12])([H:7])([H:8])[H:9]" pbc="F F F"
C       -3.11008263      -0.91080666      -2.90501976
O       -3.76287842      -1.35243797      -1.68956947
C       -3.19682312      -2.37426567      -1.02418900
O       -2.02946091      -2.74917030      -1.24240303
O       -4.05670547      -2.86840057      -0.15935898
C       -3.63081741      -3.77559280       0.81686974
H       -3.69874763      -0.26134682      -3.51309204
H       -2.16230583      -0.47622299      -2.65966988
H       -2.89463997      -1.79954720      -3.50712013
H       -4.38718414      -4.53288078       0.95552063
H       -2.67629814      -4.26305771       0.44429207
H       -3.50407410      -3.23300743       1.77902603
12
Properties=species:S:1:pos:R:3 name=DMC mapped_smiles="[C:1]([O:2][C:3](=[O:4])[O:5][C:6]([H:10])([H:11])[H:12])([H:7])([H:8])[H:9]" pbc="F F F"
C       -3.31092644       2.05545235      -6.69321823
O       -2.87230110       0.74787331      -7.35848999
C       -2.46572685      -0.23483658      -6.48600578
O       -2.42331123      -0.14905548      -5.26711464
O       -2.04924965      -1.27733231      -7.24783325
C       -1.73791313      -2.54263115      -6.49813271
H       -3.01439476       2.84131813      -7.27296829
H       -4.36471939       2.07464600      -6.70562744
H       -2.91812706       2.34182739      -5.70130730
H       -2.68395805      -2.98283195      -6.21287537
H       -1.08681107      -3.14354706      -7.11530113
H       -1.19830132      -2.27426147      -5.62137794
12
Properties=species:S:1:pos:R:3 name=DMC mapped_smiles="[C:1]([O:2][C:3](=[O:4])[O:5][C:6]([H:10])([H:11])[H:12])([H:7])([H:8])[H:9]" pbc="F F F"
C        3.88521004      -4.64540482       1.98165512
O        2.66443634      -4.86647797       1.23540115
C        1.77343750      -3.86396408       1.01528168
O        1.79960442      -2.70923996       1.37047958
O        0.70069122      -4.31373596       0.28421021
C        0.86489868      -5.53824997      -0.38235855
H        4.58609200      -5.43314743       1.68983459
H        4.29452896      -3.60931778       1.80240250
H        3.64175224      -4.81516266       3.01228714
H        1.82737923      -5.55071259      -0.99018860
H        1.09604836      -6.29534721       0.35619736
H        0.04192924      -5.75307465      -1.00406265
12
Properties=species:S:1:pos:R:3 name=DMC mapped_smiles="[C:1]([O:2][C:3](=[O:4])[O:5][C:6]([H:10])([H:11])[H:12])([H:7])([H:8])[H:9]" pbc="F F F"
C        0.00000000       0.00000000       0.00000000
O        0.99084473      -0.84550858      -0.61032104
C        0.78517151      -2.26127625      -0.30197334
O       -0.19544983      -2.71843147       0.25108910
O        1.87309265      -2.93457413      -0.73290634
C        2.04571533      -4.34314537      -0.23713875
H        0.02020264      -0.15731049       1.03410339
H        0.11646652       1.08257484      -0.10411644
H       -1.04326057      -0.25760269      -0.42523193
H        1.43990326      -5.00789642      -0.85438538
H        3.11337280      -4.60910797      -0.49238014
H        1.85329819      -4.47636223       0.85310555
12
Properties=species:S:1:pos:R:3 name=DMC mapped_smiles="[C:1]([O:2][C:3](=[O:4])[O:5][C:6]([H:10])([H:11])[H:12])([H:7])([H:8])[H:9]" pbc="F F F"
C       -0.85569954       4.81157875      -6.17203903
O       -1.97169495       4.11268044      -6.65618324
C       -2.37421227       2.88319016      -6.18626976
O       -1.89682579       2.45992851      -5.12387085
O       -3.28776360       2.43684578      -7.00639534
C       -3.90337563       1.26436043      -6.49273872
H       -1.12820244       4.96930885      -5.15083313
H       -0.07443810       4.08583641      -6.36279488
H       -0.70110512       5.74625206      -6.74304390
H       -4.17216682       1.35717201      -5.44325066
H       -4.81597328       1.07138062      -7.08835793
H       -3.22257614       0.41676903      -6.77309608
