12
Properties=species:S:1:pos:R:3 name=DMC mapped_smiles="[C:1]([O:2][C:3](=[O:4])[O:5][C:6]([H:10])([H:11])[H:12])([H:7])([H:8])[H:9]" pbc="F F F"
C       -4.20817947      -0.40451622      -0.60553741
O       -4.27866364       0.88296127      -1.32455826
C       -3.28250504       1.09725952      -2.24437714
O       -2.58090973       0.20493507      -2.70280075
O       -3.38584900       2.36820030      -2.64294815
C       -2.58501434       2.78745651      -3.81974030
H       -3.16304779      -0.75804710      -0.51318359
H       -4.88832855      -0.36124229       0.32450485
H       -4.70162582      -0.96735764      -1.33198929
H       -1.55754089       2.41116905      -3.77298737
H       -3.07998657       2.40561867      -4.71245956
H       -2.53365326       3.87379074      -3.94327164
12
Properties=species:S:1:pos:R:3 name=DMC mapped_smiles="[C:1]([O:2][C:3](=[O:4])[O:5][C:6]([H:10])([H:11])[H:12])([H:7])([H:8])[H:9]" pbc="F F F"
C       -3.36606598       6.45902252       2.78774452
O       -2.41217041       5.77904129       3.55084610
C       -1.73364258       4.76910782       2.92238045
O       -1.84488678       4.42736435       1.71211624
O       -0.99424744       4.11109924       3.85010338
C       -0.41396713       2.89065933       3.46133041
H       -3.53385925       7.36941147       3.39835548
H       -2.87446594       6.71529007       1.82310677
H       -4.21109390       5.80270767       2.83430481
H       -1.09216309       2.05486679       3.57736206
H       -0.10560226       2.97181320       2.42067719
H        0.50164032       2.73041153       4.02751541
12
Properties=species:S:1:pos:R:3 name=DMC mapped_smiles="[C:1]([O:2][C:3](=[O:4])[O:5][C:6]([H:10])([H:11])[H:12])([H:7])([H:8])[H:9]" pbc="F F F"
C        2.74735451      -4.26689911       0.25111961
O        1.86711502      -5.39235115       0.45196915
C        0.58212471      -5.07539940       0.91845703
O        0.07970238      -3.94619560       0.89586830
O       -0.02021408      -6.25024414       1.24938583
C       -1.30163193      -5.98671532       1.94409752
H        3.10977364      -4.43396950      -0.75502586
H        2.13834953      -3.34093285       0.32462120
H        3.52046394      -4.22605133       1.05982208
H       -1.96566963      -5.70894623       1.15945816
H       -1.66369057      -6.98159218       2.42974091
H       -1.17352295      -5.17434883       2.64382935
12
Properties=species:S:1:pos:R:3 name=DMC mapped_smiles="[C:1]([O:2][C:3](=[O:4])[O:5][C:6]([H:10])([H:11])[H:12])([H:7])([H:8])[H:9]" pbc="F F F"
C        0.96529961      -4.55922127      -3.41114807
O       -0.43393517      -4.79563332      -3.60818672
C       -1.28363037      -4.77816963      -2.52761459
O       -1.03792953      -4.75026703      -1.31117249
O       -2.53786659      -4.84887123      -3.07264328
C       -3.62121010      -5.15828133      -2.10024071
H        1.03471184      -3.54123878      -2.99875259
H        1.32682037      -5.31381798      -2.70909691
H        1.40716171      -4.57600212      -4.41304970
H       -3.51649284      -4.49188995      -1.20089340
H       -4.66194344      -5.15099907      -2.48776054
H       -3.50908470      -6.14342880      -1.66941833
12
Properties=species:S:1:pos:R:3 name=DMC mapped_smiles="[C:1]([O:2][C:3](=[O:4])[O:5][C:6]([H:10])([H:11])[H:12])([H:7])([H:8])[H:9]" pbc="F F F"
C        2.14458847       3.54733467       1.67559814
O        0.77496338       3.56080437       2.15253258
C       -0.13748550       2.78801918       1.53741455
O        0.06128311       1.87687111       0.75958443
O       -1.33317947       3.17929649       1.91584587
C       -2.44009018       2.28647423       1.44850349
H        2.83457565       4.08756828       2.36150932
H        2.46237183       2.51910210       1.31111526
H        2.11953735       4.11528587       0.76459694
H       -2.38742828       2.18734550       0.41524124
H       -2.32100677       1.29924965       1.89172745
H       -3.43722916       2.71270561       1.69012260
12
Properties=species:S:1:pos:R:3 name=DMC mapped_smiles="[C:1]([O:2][C:3](=[O:4])[O:5][C:6]([H:10])([H:11])[H:12])([H:7])([H:8])[H:9]" pbc="F F F"
C        5.14453125       5.71537781      -1.09414864
O        5.83440018       5.64093971       0.17451286
C        5.71903229       4.49486351       0.89725304
O        5.20305634       3.45784187       0.49795723
O        6.16159248       4.67875481       2.12027550
C        5.91664124       3.68119621       3.06619453
H        5.31088638       6.72434616      -1.47935104
H        5.57018089       4.95264435      -1.75250435
H        4.05458450       5.52105904      -0.97225952
H        6.04656410       2.65360069       2.69772530
H        6.57424355       3.94227028       3.93192863
H        4.82956505       3.73013115       3.41513443
12
Properties=species:S:1:pos:R:3 name=DMC mapped_smiles="[C:1]([O:2][C:3](=[O:4])[O:5][C:6]([H:10])([H:11])[H:12])([H:7])([H:8])[H:9]" pbc="F F F"
C       -3.01678848       1.52897644      -5.92684746
O       -3.30126953       0.25150681      -5.29020691
C       -3.10361481       0.17310333      -3.95869827
O       -2.75012970       1.06500626      -3.16582680
O       -3.21790314      -1.11672974      -3.70036125
C       -3.12003326      -1.47940826      -2.32227898
H       -3.71336746       2.33147049      -5.61888885
H       -1.99536705       1.76942062      -5.62525368
H       -3.15905190       1.38617325      -6.99668884
H       -2.02413177      -1.43119049      -2.19899940
H       -3.58914375      -0.66857147      -1.69728088
H       -3.47702408      -2.48556519      -2.21454048
12
Properties=species:S:1:pos:R:3 name=DMC mapped_smiles="[C:1]([O:2][C:3](=[O:4])[O:5][C:6]([H:10])([H:11])[H:12])([H:7])([H:8])[H:9]" pbc="F F F"
C        6.13398361      -3.44046402      -8.12177086
O        5.68860435      -2.09628296      -8.15094948
C        5.02091408      -1.65963364      -7.11112022
O        4.63306236      -2.31909180      -6.11656570
O        4.83536911      -0.35481644      -7.26197624
C        3.85800362       0.37557220      -6.52051735
H        5.15586281      -4.03239059      -8.24693680
H        6.79137802      -3.54302216      -8.97538185
H        6.73248100      -3.69434738      -7.25833893
H        3.75621605      -0.02390671      -5.53389931
H        4.08159447       1.41162872      -6.54704475
H        2.89794540       0.26775742      -6.98110771
12
Properties=species:S:1:pos:R:3 name=DMC mapped_smiles="[C:1]([O:2][C:3](=[O:4])[O:5][C:6]([H:10])([H:11])[H:12])([H:7])([H:8])[H:9]" pbc="F F F"
C       -3.87301636      -1.44925690      -3.20730019
O       -3.70767975      -2.71949768      -2.53836250
C       -2.38199997      -3.05825806      -2.29717827
O       -1.37774658      -2.51567078      -2.73040199
O       -2.38636780      -4.15356445      -1.49996185
C       -1.21695709      -4.64396286      -0.94786072
H       -4.93714523      -1.23020554      -3.26436996
H       -3.34560013      -0.71605682      -2.61182213
H       -3.31099319      -1.62281036      -4.12015915
H       -0.71749496      -5.32204056      -1.64210510
H       -0.42470932      -3.84947205      -0.68104553
H       -1.62311554      -5.22511673      -0.08896637
12
Properties=species:S:1:pos:R:3 name=DMC mapped_smiles="[C:1]([O:2][C:3](=[O:4])[O:5][C:6]([H:10])([H:11])[H:12])([H:7])([H:8])[H:9]" pbc="F F F"
C        0.43550491      -5.56360817      -4.48762512
O       -0.38587761      -5.63694954      -3.26374245
C       -0.42327118      -4.49621773      -2.47763634
O        0.22689247      -3.43994331      -2.60308456
O       -1.22876549      -4.86483955      -1.45495605
C       -1.18598366      -3.91982460      -0.31234169
H        1.48290825      -5.35062599      -4.20310974
H        0.41112900      -6.53275490      -5.09840965
H        0.01832199      -4.72542000      -5.08891869
H       -1.77342415      -3.07821846      -0.58285141
H       -1.67938042      -4.31061745       0.59416962
H       -0.24827766      -3.49118996      -0.06214142
12
Properties=species:S:1:pos:R:3 name=DMC mapped_smiles="[C:1]([O:2][C:3](=[O:4])[O:5][C:6]([H:10])([H:11])[H:12])([H:7])([H:8])[H:9]" pbc="F F F"
C       -0.80858231      -2.53813934       2.34019089
O       -0.50578690      -3.71030426       1.44767570
C       -0.89035416      -4.93881607       1.93487167
O       -1.39487839      -5.22602844       2.97263527
O       -0.69875336      -5.77733994       0.90059090
C       -1.26490021      -7.10276031       0.89487457
H       -1.77819824      -2.76498032       2.86175537
H       -0.05448151      -2.25501251       2.98040390
H       -1.00838470      -1.64069748       1.77632332
H       -1.34347916      -7.47229004      -0.10736275
H       -0.66091156      -7.81459808       1.48092270
H       -2.28063583      -7.11156845       1.27585983
12
Properties=species:S:1:pos:R:3 name=DMC mapped_smiles="[C:1]([O:2][C:3](=[O:4])[O:5][C:6]([H:10])([H:11])[H:12])([H:7])([H:8])[H:9]" pbc="F F F"
C       -2.72331429       7.84500313      -1.12312317
O       -3.72830009       6.80216217      -0.86117935
C       -3.69696426       6.34382439       0.39068985
O       -2.96191978       6.70434189       1.28549194
O       -4.62733078       5.42448807       0.53137207
C       -4.65524101       4.42916679       1.60911560
H       -2.71305275       8.75771523      -0.46437836
H       -1.74345970       7.30790520      -1.00702667
H       -2.92417717       8.21681404      -2.15019226
H       -5.63027573       4.44817543       1.97911835
H       -4.48655319       3.40641785       1.26470184
H       -3.97032356       4.62266159       2.36100006
12
Properties=species:S:1:pos:R:3 name=DMC mapped_smiles="[C:1]([O:2][C:3](=[O:4])[O:5][C:6]([H:10])([H:11])[H:12])([H:7])([H:8])[H:9]" pbc="F F F"
C        0.41630173       5.80823135       2.91072845
O        1.82253265       6.08440018       2.92795181
C        2.68016815       5.04399490       3.26618576
O        2.38837814       3.87114143       3.29386139
O        3.91464233       5.56352615       3.35419083
C        4.94461441       4.64452362       3.36968613
H       -0.11695480       6.75849724       2.70963669
H        0.24263000       5.02322388       2.18466568
H        0.05366898       5.54654503       3.88526917
H        4.88311386       4.00195503       2.49240875
H        5.82183075       5.29862785       3.29385757
H        4.92647552       4.03725624       4.25500107
12
Properties=species:S:1:pos:R:3 name=DMC mapped_smiles="[C:1]([O:2][C:3](=[O:4])[O:5][C:6]([H:10])([H:11])[H:12])([H:7])([H:8])[H:9]" pbc="F F F"
C        1.26645660       3.99668503      -0.04815102
O        1.64192581       3.71173096      -1.38587379
C        1.54045868       2.42472076      -1.77267838
O        1.08403778       1.47802734      -1.11877441
O        1.94860458       2.44599152      -3.05398369
C        1.84870148       1.24805069      -3.82358360
H        0.21252441       4.20445251       0.09065628
H        1.57627869       3.18733978       0.67971230
H        1.87232971       4.86686707       0.19566154
H        2.75547409       1.12218094      -4.45087624
H        1.75236893       0.37339401      -3.21393585
H        1.02651215       1.53435516      -4.43185234
12
Properties=species:S:1:pos:R:3 name=DMC mapped_smiles="[C:1]([O:2][C:3](=[O:4])[O:5][C:6]([H:10])([H:11])[H:12])([H:7])([H:8])[H:9]" pbc="F F F"
C       -1.22040939       3.49806213       3.46037292
O       -1.36415863       2.11199188       3.06883240
C       -0.80899811       1.11137390       3.86226273
O       -0.30609131       1.22224617       4.93118286
O       -0.97830963      -0.02573395       3.10854721
C       -0.67678070      -1.25883102       3.71495438
H       -0.16284943       3.67709351       3.73984146
H       -1.51188660       4.11169434       2.65993881
H       -1.90311813       3.62911606       4.35380936
H       -0.94476700      -2.15033340       3.10136795
H        0.40285492      -1.32344818       3.91481781
H       -1.20380402      -1.30245972       4.70313263
12
Properties=species:S:1:pos:R:3 name=DMC mapped_smiles="[C:1]([O:2][C:3](=[O:4])[O:5][C:6]([H:10])([H:11])[H:12])([H:7])([H:8])[H:9]" pbc="F F F"
C        2.25070190      -1.26740646       3.91413689
O        0.93954468      -0.63428879       4.14214516
C       -0.17680359      -0.97209930       3.49201965
O       -0.38455963      -1.79607010       2.60286903
O       -1.14262009      -0.17396545       4.08974838
C       -2.46059036      -0.17967606       3.39296722
H        2.17700577      -2.28019333       4.17373466
H        2.59427261      -1.12954712       2.89396286
H        2.91194153      -0.79815674       4.61760330
H       -3.26523972      -0.21804047       4.16084480
H       -2.61163330       0.71504974       2.77746010
H       -2.53333664      -1.01573181       2.71419334
12
Properties=species:S:1:pos:R:3 name=DMC mapped_smiles="[C:1]([O:2][C:3](=[O:4])[O:5][C:6]([H:10])([H:11])[H:12])([H:7])([H:8])[H:9]" pbc="F F F"
C       -1.45725250       3.16421890       0.86662292
O       -0.44738770       3.35083389       1.87995911
C        0.67237854       2.46468353       1.80200577
O        0.80191803       1.49206161       1.09542465
O        1.52099228       2.96326447       2.68822098
C        2.64825821       2.21816635       3.02760696
H       -2.29032135       3.84462738       1.08874512
H       -1.11895370       3.25658798      -0.13717270
H       -1.86271286       2.17544937       1.00524139
H        3.39972305       2.30486298       2.19810104
H        3.07525253       2.60569000       3.97749710
H        2.41095734       1.12690735       3.30814743
12
Properties=species:S:1:pos:R:3 name=DMC mapped_smiles="[C:1]([O:2][C:3](=[O:4])[O:5][C:6]([H:10])([H:11])[H:12])([H:7])([H:8])[H:9]" pbc="F F F"
C        3.58258820       1.46358299      -6.03319931
O        3.26015472       2.89376259      -5.92424965
C        2.89879608       3.39390755      -4.71959114
O        2.75186539       2.76683235      -3.69542503
O        2.71059036       4.74409294      -4.87370110
C        2.33207703       5.51492500      -3.66926003
H        3.01358032       0.95381355      -5.32496071
H        3.53031158       1.13479042      -7.08158875
H        4.63610458       1.31608772      -5.67298508
H        1.24532318       5.68689919      -3.52666092
H        2.84012222       4.94119072      -2.82428932
H        2.74677277       6.48401833      -3.62638664
12
Properties=species:S:1:pos:R:3 name=DMC mapped_smiles="[C:1]([O:2][C:3](=[O:4])[O:5][C:6]([H:10])([H:11])[H:12])([H:7])([H:8])[H:9]" pbc="F F F"
C       -0.08464813       3.51821327       6.52116585
O        0.06994247       2.09831047       6.85419273
C       -0.71748734       1.31237030       6.15299416
O       -1.38995361       1.75173759       5.24044228
O       -0.51551437      -0.00396156       6.55420876
C       -1.20243073      -0.93928719       5.80699348
H       -1.11487198       3.85625076       6.72176552
H        0.55938339       4.08566093       7.23820305
H        0.28948593       3.71600723       5.51978874
H       -0.84201050      -0.79766464       4.77837181
H       -1.00354767      -1.97118187       6.14550209
H       -2.29139328      -0.73340988       5.80039406
12
Properties=species:S:1:pos:R:3 name=DMC mapped_smiles="[C:1]([O:2][C:3](=[O:4])[O:5][C:6]([H:10])([H:11])[H:12])([H:7])([H:8])[H:9]" pbc="F F F"
C        2.87272644      -4.97342110      -5.48429680
O        3.21522141      -4.15312767      -4.29360771
C        4.47325897      -3.82489014      -3.99423027
O        5.52890778      -4.33249855      -4.30940819
O        4.36508179      -2.69336128      -3.31490135
C        5.56489944      -1.81328392      -3.10272026
H        2.20692062      -5.73318100      -5.13138771
H        2.32942581      -4.28388786      -6.16240501
H        3.83361435      -5.42401886      -5.90943718
H        6.43614197      -2.45206451      -3.21876717
H        5.62947845      -0.90105820      -3.73247719
H        5.57627106      -1.38532639      -2.05243874
12
Properties=species:S:1:pos:R:3 name=DMC mapped_smiles="[C:1]([O:2][C:3](=[O:4])[O:5][C:6]([H:10])([H:11])[H:12])([H:7])([H:8])[H:9]" pbc="F F F"
C        2.33772278      -1.77580261      -3.29357147
O        3.01403046      -2.41952896      -2.23653030
C        3.09495163      -1.79524994      -1.03602600
O        3.03216553      -0.58547211      -0.84206009
O        3.32088852      -2.78570175      -0.09890366
C        3.29747391      -2.58749771       1.30081177
H        1.31605911      -1.49093628      -3.03077316
H        2.89335632      -0.88828278      -3.51530457
H        2.30623245      -2.43935776      -4.09955215
H        4.32072258      -2.43751907       1.67938995
H        2.65834236      -1.73028564       1.50842285
H        2.96282196      -3.53197479       1.77509308
12
Properties=species:S:1:pos:R:3 name=DMC mapped_smiles="[C:1]([O:2][C:3](=[O:4])[O:5][C:6]([H:10])([H:11])[H:12])([H:7])([H:8])[H:9]" pbc="F F F"
C       -0.90490723      -1.19800758       4.75039291
O        0.39078903      -1.92743874       4.54617310
C        0.47407532      -2.74632072       3.42567825
O       -0.47196960      -3.00762749       2.64347458
O        1.79597473      -3.24415398       3.27572250
C        2.02610016      -4.07323265       2.14283752
H       -0.64208984      -0.25859070       5.22282410
H       -1.36238861      -0.99934769       3.80051422
H       -1.52613831      -1.87884521       5.35087967
H        1.44060516      -5.02489090       2.20005417
H        1.66350174      -3.60544014       1.22407913
H        3.05136871      -4.29876900       2.01886368
12
Properties=species:S:1:pos:R:3 name=DMC mapped_smiles="[C:1]([O:2][C:3](=[O:4])[O:5][C:6]([H:10])([H:11])[H:12])([H:7])([H:8])[H:9]" pbc="F F F"
C       -0.85084915       4.47400284       1.40455627
O        0.07838440       4.41122818       2.46708298
C        1.15311050       3.55624962       2.39997101
O        1.71016312       3.05258179       1.38108063
O        1.63072968       3.34888649       3.63948441
C        2.85112381       2.55661392       3.80280685
H       -0.80416107       5.51349258       1.07078171
H       -0.54615784       3.69041443       0.67340088
H       -1.81120682       4.38617325       1.96208572
H        2.95119476       2.24088669       4.83950043
H        2.96094894       1.71058464       3.14667511
H        3.67890930       3.26710320       3.58468628
12
Properties=species:S:1:pos:R:3 name=DMC mapped_smiles="[C:1]([O:2][C:3](=[O:4])[O:5][C:6]([H:10])([H:11])[H:12])([H:7])([H:8])[H:9]" pbc="F F F"
C        2.51126671       2.35290527      -3.03000832
O        2.35390663       1.06649399      -2.43928719
C        1.79193687      -0.00765228      -3.07929420
O        1.23686409       0.04054070      -4.14404488
O        1.88646889      -1.05491066      -2.25281715
C        1.21782494      -2.22316742      -2.56824684
H        3.48034096       2.82339859      -2.80633736
H        2.43147850       2.25716591      -4.10214424
H        1.72523308       2.93988228      -2.69699287
H        0.31274796      -2.13161850      -2.01821327
H        1.13240623      -2.25442505      -3.72884560
H        1.83589363      -3.05451584      -2.15628242
12
Properties=species:S:1:pos:R:3 name=DMC mapped_smiles="[C:1]([O:2][C:3](=[O:4])[O:5][C:6]([H:10])([H:11])[H:12])([H:7])([H:8])[H:9]" pbc="F F F"
C        4.15662003       6.62993431      -1.52892113
O        3.96573830       6.07090950      -2.82674599
C        4.01460838       4.73892021      -2.98242760
O        3.95221710       3.95023155      -2.02726746
O        4.02212524       4.37734795      -4.35766602
C        4.31167412       2.94185829      -4.62515831
H        3.49774170       6.09757805      -0.74258423
H        5.20321465       6.57699776      -1.26140594
H        3.90175247       7.68138695      -1.57753754
H        3.35079193       2.46359062      -4.88466644
H        5.03425598       2.83008766      -5.46835518
H        4.70238876       2.49680138      -3.66965294
12
Properties=species:S:1:pos:R:3 name=DMC mapped_smiles="[C:1]([O:2][C:3](=[O:4])[O:5][C:6]([H:10])([H:11])[H:12])([H:7])([H:8])[H:9]" pbc="F F F"
C       -5.05167198      -0.94962692      -6.33696938
O       -4.18720818      -1.92091370      -6.96820259
C       -3.25832176      -2.63810730      -6.19303322
O       -3.01073074      -2.46117783      -5.01087379
O       -2.72362900      -3.58553314      -6.98300362
C       -1.99500084      -4.56315613      -6.30264473
H       -4.49917412      -0.13476181      -5.91964149
H       -5.67366791      -0.57362747      -7.19893074
H       -5.66917229      -1.43496704      -5.58577919
H       -2.69303703      -5.17173386      -5.72513008
H       -1.61672211      -5.20592880      -7.10577583
H       -1.20275497      -4.12189484      -5.65294075
12
Properties=species:S:1:pos:R:3 name=DMC mapped_smiles="[C:1]([O:2][C:3](=[O:4])[O:5][C:6]([H:10])([H:11])[H:12])([H:7])([H:8])[H:9]" pbc="F F F"
C       -3.14009094      -2.18572235      -3.44103813
O       -3.71697617      -3.55393219      -3.61233711
C       -3.51564026      -4.30126190      -2.53637695
O       -2.64892197      -4.18703842      -1.71110153
O       -4.39509964      -5.34983063      -2.49921989
C       -4.11017227      -6.31626511      -1.44198227
H       -4.01192093      -1.56999969      -3.15137482
H       -2.34976578      -2.11388397      -2.71943092
H       -2.84807968      -1.79780579      -4.36445427
H       -5.07925415      -6.63842392      -1.08058929
H       -3.50638580      -7.14224625      -1.77544403
H       -3.56558609      -5.88947678      -0.64642525
12
Properties=species:S:1:pos:R:3 name=DMC mapped_smiles="[C:1]([O:2][C:3](=[O:4])[O:5][C:6]([H:10])([H:11])[H:12])([H:7])([H:8])[H:9]" pbc="F F F"
C        7.70210457       0.11423874       0.13430595
O        7.63282967       1.22005463      -0.84246254
C        6.82930183       1.01913834      -1.95411873
O        6.01134109       0.12754059      -2.03190231
O        7.17013550       1.93066788      -2.90609360
C        6.37415123       1.94759750      -4.11366844
H        8.42211723       0.33085251       0.91292763
H        6.70766068      -0.00769806       0.54895592
H        7.91355324      -0.80432510      -0.31712914
H        6.92205238       2.47616577      -4.96018982
H        6.07836533       0.92122650      -4.41465187
H        5.52318192       2.51102829      -3.78158188
12
Properties=species:S:1:pos:R:3 name=DMC mapped_smiles="[C:1]([O:2][C:3](=[O:4])[O:5][C:6]([H:10])([H:11])[H:12])([H:7])([H:8])[H:9]" pbc="F F F"
C        5.18873978      -0.43416977      -4.74762917
O        5.32951355       0.97714233      -4.54434395
C        4.23141861       1.75367737      -4.34955788
O        3.06978989       1.43619537      -4.51848030
O        4.74515533       3.06973267      -4.12448311
C        3.81235886       4.18209839      -4.12243843
H        4.46632385      -0.64168549      -5.61468697
H        6.19787598      -0.90435791      -4.92840767
H        4.73889542      -0.91787338      -3.91388130
H        4.42464828       5.09793472      -4.07522774
H        3.31430054       4.17600632      -5.17832375
H        3.08109283       4.11583328      -3.32528114
12
Properties=species:S:1:pos:R:3 name=DMC mapped_smiles="[C:1]([O:2][C:3](=[O:4])[O:5][C:6]([H:10])([H:11])[H:12])([H:7])([H:8])[H:9]" pbc="F F F"
C        5.27499390      -0.52420807       3.34485626
O        5.82558441      -1.76977348       3.95837784
C        5.06773758      -2.87169838       3.94394684
O        4.14017487      -3.12531281       3.19063568
O        5.48250961      -3.66596222       4.95106506
C        4.65688705      -4.97519112       5.06794739
H        4.64016342      -0.67409706       2.48774719
H        4.55903244      -0.26867294       4.13890457
H        6.05781555       0.21129227       3.06926727
H        3.61368179      -4.73744202       4.95912170
H        5.00201797      -5.72491646       4.30636215
H        4.84208298      -5.39702415       6.05186462
12
Properties=species:S:1:pos:R:3 name=DMC mapped_smiles="[C:1]([O:2][C:3](=[O:4])[O:5][C:6]([H:10])([H:11])[H:12])([H:7])([H:8])[H:9]" pbc="F F F"
C        0.17686081      -1.54545784      -4.06702232
O        0.43785095      -0.82611847      -5.27869225
C        1.55990601      -0.12201500      -5.08181763
O        2.45021439      -0.39982224      -4.30708122
O        1.61142731       0.87938309      -5.98340225
C        2.83018112       1.67264557      -5.86817932
H       -0.10361862      -0.77648163      -3.29718781
H       -0.57417679      -2.24711227      -4.20796967
H        1.10434341      -2.10796738      -3.68969536
H        3.08109665       1.87391663      -4.86495590
H        3.64661026       1.15705109      -6.31880760
H        2.83210754       2.56527519      -6.52171707
12
Properties=species:S:1:pos:R:3 name=DMC mapped_smiles="[C:1]([O:2][C:3](=[O:4])[O:5][C:6]([H:10])([H:11])[H:12])([H:7])([H:8])[H:9]" pbc="F F F"
C        3.08085823       6.07122803       2.68864059
O        1.64090919       6.08198929       2.34029388
C        1.05509377       4.92798424       1.92989922
O        1.68749428       3.87915802       1.79895592
O       -0.20357323       5.21947289       1.62458801
C       -0.99130440       4.13262939       1.06635857
H        3.18047523       6.58971214       3.60966873
H        3.49744225       5.04832077       2.65283394
H        3.58009720       6.63622665       1.93632698
H       -1.67780876       4.47824669       0.26353645
H       -0.30189705       3.36669350       0.67220879
H       -1.46483612       3.58020782       1.92954254
12
Properties=species:S:1:pos:R:3 name=DMC mapped_smiles="[C:1]([O:2][C:3](=[O:4])[O:5][C:6]([H:10])([H:11])[H:12])([H:7])([H:8])[H:9]" pbc="F F F"
C        1.96200180      -4.65209961       1.49188423
O        3.33330154      -4.59194946       1.75844383
C        4.24989128      -4.42341995       0.71092033
O        3.98373604      -4.10846710      -0.44466972
O        5.45935440      -4.71835709       1.19317818
C        6.63625908      -4.39488602       0.34496880
H        1.68268585      -5.62028503       1.78615379
H        1.55147171      -3.85275650       2.14737129
H        1.68000412      -4.65957642       0.45712471
H        7.03048706      -5.34063339      -0.03571892
H        6.45668983      -3.59359741      -0.38023949
H        7.41427994      -4.01021957       1.03904915
12
Properties=species:S:1:pos:R:3 name=DMC mapped_smiles="[C:1]([O:2][C:3](=[O:4])[O:5][C:6]([H:10])([H:11])[H:12])([H:7])([H:8])[H:9]" pbc="F F F"
C        2.78771973      -5.02370644      -1.28668213
O        2.23818016      -5.76164055      -2.35522461
C        0.95305443      -5.49882126      -2.79240799
O        0.20117188      -4.66427040      -2.36767960
O        0.66933060      -6.51262474      -3.67884445
C       -0.56669617      -6.23384857      -4.40252304
H        2.57062531      -3.91303253      -1.31723022
H        2.38816261      -5.34265327      -0.33458710
H        3.83427811      -5.19174957      -1.20802307
H       -0.71238518      -5.17075157      -4.62699509
H       -0.63073730      -6.89400673      -5.23515320
H       -1.41698074      -6.54607964      -3.77583694
12
Properties=species:S:1:pos:R:3 name=DMC mapped_smiles="[C:1]([O:2][C:3](=[O:4])[O:5][C:6]([H:10])([H:11])[H:12])([H:7])([H:8])[H:9]" pbc="F F F"
C       -4.38918495       0.93733978       1.29484177
O       -4.97789764       0.79049301       2.63915443
C       -4.40920639       1.34424210       3.71953773
O       -3.31505394       1.81181145       3.78750610
O       -5.24771309       1.31377220       4.79196358
C       -4.70502281       1.66452026       6.06645393
H       -3.38200569       0.58879280       1.35944176
H       -4.99209213       0.34474945       0.58702087
H       -4.40756798       2.01535416       1.06842232
H       -5.14373589       2.61584854       6.37333488
H       -4.94960594       0.88776970       6.81585312
H       -3.62037468       1.75808907       6.18421745
12
Properties=species:S:1:pos:R:3 name=DMC mapped_smiles="[C:1]([O:2][C:3](=[O:4])[O:5][C:6]([H:10])([H:11])[H:12])([H:7])([H:8])[H:9]" pbc="F F F"
C        7.06961632      -6.37449074      -4.94194603
O        5.83947182      -5.82436180      -4.44440079
C        5.44753075      -6.25736427      -3.27161598
O        6.02945900      -7.15501595      -2.71553993
O        4.29975891      -5.65765762      -2.86209679
C        3.52293968      -6.20815277      -1.77737427
H        7.00121117      -7.45919991      -4.84399605
H        7.29075813      -6.11868858      -5.99367142
H        7.92388344      -6.00312233      -4.36671638
H        3.21340752      -7.19957733      -2.11797714
H        4.14048386      -6.37191010      -0.90971184
H        2.73580360      -5.59574509      -1.36994934
12
Properties=species:S:1:pos:R:3 name=DMC mapped_smiles="[C:1]([O:2][C:3](=[O:4])[O:5][C:6]([H:10])([H:11])[H:12])([H:7])([H:8])[H:9]" pbc="F F F"
C        2.59152603      -1.96597672      -3.60424805
O        2.88122177      -0.55460167      -3.92935562
C        1.84078217       0.24077797      -4.47422028
O        0.73136711      -0.14918327      -4.71480179
O        2.39194679       1.39439964      -4.84779549
C        1.58505440       2.42803955      -5.46585083
H        2.89866257      -2.10180664      -2.50362778
H        1.49796867      -2.16200638      -3.69399452
H        3.17048073      -2.60355568      -4.25871849
H        0.88991165       2.63639450      -4.69021797
H        2.14124870       3.36607361      -5.74877548
H        1.06628227       1.92995644      -6.30864143
12
Properties=species:S:1:pos:R:3 name=DMC mapped_smiles="[C:1]([O:2][C:3](=[O:4])[O:5][C:6]([H:10])([H:11])[H:12])([H:7])([H:8])[H:9]" pbc="F F F"
C        6.72220039      -1.84737015       3.02635193
O        6.48486137      -1.16706467       1.79817200
C        5.10737610      -0.93619537       1.60318756
O        4.21215248      -1.29838181       2.37103271
O        4.89000130      -0.18462372       0.47726822
C        3.51440239       0.06707382       0.09721375
H        7.71224403      -2.29397202       3.00325394
H        6.59003830      -1.12789154       3.82398605
H        6.06314278      -2.75204086       3.15293884
H        3.12970543       0.83004761       0.75964355
H        3.42210579       0.33623505      -0.93638992
H        2.94337273      -0.89937973       0.19748306
12
Properties=species:S:1:pos:R:3 name=DMC mapped_smiles="[C:1]([O:2][C:3](=[O:4])[O:5][C:6]([H:10])([H:11])[H:12])([H:7])([H:8])[H:9]" pbc="F F F"
C        3.01953697       1.91644287      -2.52255630
O        3.68308830       1.77296829      -3.81147003
C        3.96121407       0.52017784      -4.23721504
O        3.88660622      -0.46098137      -3.50987244
O        4.49328041       0.50579834      -5.50267029
C        4.74653435      -0.78971863      -6.08378601
H        3.67997932       1.71228409      -1.66279411
H        2.64423943       2.93508530      -2.48258018
H        2.13695717       1.35630417      -2.45592499
H        5.42884827      -0.64653778      -6.99631119
H        5.10170937      -1.49256897      -5.31056976
H        3.80179405      -1.15284729      -6.51334381
12
Properties=species:S:1:pos:R:3 name=DMC mapped_smiles="[C:1]([O:2][C:3](=[O:4])[O:5][C:6]([H:10])([H:11])[H:12])([H:7])([H:8])[H:9]" pbc="F F F"
C       -2.37434959      -2.09267235      -3.50916481
O       -0.99636650      -2.60465050      -3.65431213
C        0.09708214      -1.72645378      -3.64496803
O        0.04266167      -0.53198051      -3.64686203
O        1.18245506      -2.61156654      -3.63406944
C        2.49646378      -2.10894966      -3.56207085
H       -3.12508392      -2.90632820      -3.57104492
H       -2.49497032      -1.40212440      -2.53859901
H       -2.62415695      -1.48959160      -4.40970802
H        3.06636620      -2.69151878      -2.86212730
H        2.99281120      -2.10212517      -4.52953339
H        2.32418633      -1.10196495      -3.24010468
