1
Properties=species:S:1:pos:R:3 name=LI mapped_smiles="[Li+:1]" pbc="F F F"
Li      -0.65859985      -0.31296158      -3.19016647
1
Properties=species:S:1:pos:R:3 name=LI mapped_smiles="[Li+:1]" pbc="F F F"
Li      -1.29645920       4.20273972      -0.20938873
1
Properties=species:S:1:pos:R:3 name=LI mapped_smiles="[Li+:1]" pbc="F F F"
Li      -3.22577858      -2.12935448       2.35806465
1
Properties=species:S:1:pos:R:3 name=LI mapped_smiles="[Li+:1]" pbc="F F F"
Li      -1.15157890      -4.47669983       0.69557190
1
Properties=species:S:1:pos:R:3 name=LI mapped_smiles="[Li+:1]" pbc="F F F"
Li       0.00000000       0.00000000       0.00000000
1
Properties=species:S:1:pos:R:3 name=LI mapped_smiles="[Li+:1]" pbc="F F F"
Li       4.06261635       1.69729424       0.14094543
1
Properties=species:S:1:pos:R:3 name=LI mapped_smiles="[Li+:1]" pbc="F F F"
Li      -1.31260681       2.61664963      -2.53553391
1
Properties=species:S:1:pos:R:3 name=LI mapped_smiles="[Li+:1]" pbc="F F F"
Li       0.22196579      -0.95211411      -3.92262077
1
Properties=species:S:1:pos:R:3 name=LI mapped_smiles="[Li+:1]" pbc="F F F"
Li      -0.40134811      -0.96508408      -3.55494881
1
Properties=species:S:1:pos:R:3 name=LI mapped_smiles="[Li+:1]" pbc="F F F"
Li       2.15833473      -2.75273323      -2.37926483
1
Properties=species:S:1:pos:R:3 name=LI mapped_smiles="[Li+:1]" pbc="F F F"
Li       0.00000000       0.00000000       0.00000000
1
Properties=species:S:1:pos:R:3 name=LI mapped_smiles="[Li+:1]" pbc="F F F"
Li      -1.15092659       6.49331093       2.07621765
1
Properties=species:S:1:pos:R:3 name=LI mapped_smiles="[Li+:1]" pbc="F F F"
Li       1.53214645       1.99444008       3.09333038
1
Properties=species:S:1:pos:R:3 name=LI mapped_smiles="[Li+:1]" pbc="F F F"
Li       0.00000000       0.00000000       0.00000000
1
Properties=species:S:1:pos:R:3 name=LI mapped_smiles="[Li+:1]" pbc="F F F"
Li      -2.33809662      -2.78499413      -0.40532684
1
Properties=species:S:1:pos:R:3 name=LI mapped_smiles="[Li+:1]" pbc="F F F"
Li       0.37073135      -3.36915970       1.62169266
1
Properties=species:S:1:pos:R:3 name=LI mapped_smiles="[Li+:1]" pbc="F F F"
Li       0.00000000       0.00000000       0.00000000
1
Properties=species:S:1:pos:R:3 name=LI mapped_smiles="[Li+:1]" pbc="F F F"
Li       2.73925400       2.14916801      -1.79462433
1
Properties=species:S:1:pos:R:3 name=LI mapped_smiles="[Li+:1]" pbc="F F F"
Li      -1.18880844       1.56079292       3.04070854
1
Properties=species:S:1:pos:R:3 name=LI mapped_smiles="[Li+:1]" pbc="F F F"
Li       2.82509613      -2.95086288      -1.08189011
1
Properties=species:S:1:pos:R:3 name=LI mapped_smiles="[Li+:1]" pbc="F F F"
Li       2.25486946       1.97772980      -2.08758545
1
Properties=species:S:1:pos:R:3 name=LI mapped_smiles="[Li+:1]" pbc="F F F"
Li      -1.93165588      -3.15377235       1.28940582
1
Properties=species:S:1:pos:R:3 name=LI mapped_smiles="[Li+:1]" pbc="F F F"
Li       2.32920074       3.08291435      -0.72520828
1
Properties=species:S:1:pos:R:3 name=LI mapped_smiles="[Li+:1]" pbc="F F F"
Li       0.37828255       0.02566719      -5.76748848
1
Properties=species:S:1:pos:R:3 name=LI mapped_smiles="[Li+:1]" pbc="F F F"
Li       2.55116081       2.50454521      -1.15064812
1
Properties=species:S:1:pos:R:3 name=LI mapped_smiles="[Li+:1]" pbc="F F F"
Li      -2.44167900      -1.49949646      -3.13865852
1
Properties=species:S:1:pos:R:3 name=LI mapped_smiles="[Li+:1]" pbc="F F F"
Li      -0.79464722      -4.05110931      -0.60887909
1
Properties=species:S:1:pos:R:3 name=LI mapped_smiles="[Li+:1]" pbc="F F F"
Li       4.01354408      -0.53045273      -1.43505669
1
Properties=species:S:1:pos:R:3 name=LI mapped_smiles="[Li+:1]" pbc="F F F"
Li       1.51461029      -0.06929779      -4.18209267
1
Properties=species:S:1:pos:R:3 name=LI mapped_smiles="[Li+:1]" pbc="F F F"
Li       2.02712250      -3.33127213       2.64500809
1
Properties=species:S:1:pos:R:3 name=LI mapped_smiles="[Li+:1]" pbc="F F F"
Li       3.42869949       0.12281036      -2.70094681
1
Properties=species:S:1:pos:R:3 name=LI mapped_smiles="[Li+:1]" pbc="F F F"
Li       2.85340500       2.71594048       0.81604004
1
Properties=species:S:1:pos:R:3 name=LI mapped_smiles="[Li+:1]" pbc="F F F"
Li       3.08550453      -2.23003387      -1.05925751
1
Properties=species:S:1:pos:R:3 name=LI mapped_smiles="[Li+:1]" pbc="F F F"
Li      -1.10568237      -3.09200096      -2.12468338
1
Properties=species:S:1:pos:R:3 name=LI mapped_smiles="[Li+:1]" pbc="F F F"
Li      -1.22701836       1.74361229       3.31185341
1
Properties=species:S:1:pos:R:3 name=LI mapped_smiles="[Li+:1]" pbc="F F F"
Li      -0.30359459      -3.70824623      -1.56000137
1
Properties=species:S:1:pos:R:3 name=LI mapped_smiles="[Li+:1]" pbc="F F F"
Li      -1.11406326       0.10108185      -3.62807655
1
Properties=species:S:1:pos:R:3 name=LI mapped_smiles="[Li+:1]" pbc="F F F"
Li       2.24534798      -1.30927658       2.71086502
1
Properties=species:S:1:pos:R:3 name=LI mapped_smiles="[Li+:1]" pbc="F F F"
Li       3.51946640      -2.38270760      -3.29408646
1
Properties=species:S:1:pos:R:3 name=LI mapped_smiles="[Li+:1]" pbc="F F F"
Li      -0.43391418       1.53269386      -4.29141045
