8
Properties=species:S:1:pos:R:3 name=EtCl mapped_smiles="[C:1]([C:2]([Cl:3])([H:7])[H:8])([H:4])([H:5])[H:6]" pbc="F F F"
C        1.95092201       5.53458786      -0.43545914
C        2.28992462       6.95877647       0.02252579
Cl       3.94097328       7.18886375       0.56623459
H        0.86472511       5.38477325      -0.50248337
H        2.29153824       5.27549744      -1.45634079
H        2.31502342       4.85762405       0.34335709
H        1.60157394       7.17717552       0.79264450
H        2.12664986       7.66825676      -0.79675674
8
Properties=species:S:1:pos:R:3 name=EtCl mapped_smiles="[C:1]([C:2]([Cl:3])([H:7])[H:8])([H:4])([H:5])[H:6]" pbc="F F F"
C        1.28352928       1.31233215      -5.36773491
C        2.32373428       1.86082077      -6.37770653
Cl       1.81291771       3.46359444      -6.87450981
H        1.65022659       0.32039452      -5.06715965
H        1.27465057       1.88385391      -4.41069603
H        0.23298264       1.08234596      -5.75019646
H        2.60351562       1.23435402      -7.20696831
H        3.26146889       2.01581764      -5.81870842
8
Properties=species:S:1:pos:R:3 name=EtCl mapped_smiles="[C:1]([C:2]([Cl:3])([H:7])[H:8])([H:4])([H:5])[H:6]" pbc="F F F"
C       -3.78008842      -1.63288116       2.06190491
C       -4.17040634      -0.16353989       1.84906387
Cl      -5.71572304      -0.13470840       0.93868256
H       -2.86392403      -1.77079391       2.64062881
H       -4.57132149      -2.16124725       2.64938736
H       -3.62113190      -2.09881592       1.08643150
H       -3.45334244       0.38519287       1.15608597
H       -4.30636597       0.46590042       2.74334145
8
Properties=species:S:1:pos:R:3 name=EtCl mapped_smiles="[C:1]([C:2]([Cl:3])([H:7])[H:8])([H:4])([H:5])[H:6]" pbc="F F F"
C        1.31251144       5.20150948      -6.63003159
C        0.22181892       5.96037674      -7.40276909
Cl       0.84761429       7.18359184      -8.50174522
H        1.77985573       5.90124130      -5.90678406
H        0.91819954       4.36862183      -5.98781586
H        2.04676628       4.78382874      -7.32647514
H       -0.45328712       6.44187737      -6.69094086
H       -0.22393417       5.28848076      -8.13538742
8
Properties=species:S:1:pos:R:3 name=EtCl mapped_smiles="[C:1]([C:2]([Cl:3])([H:7])[H:8])([H:4])([H:5])[H:6]" pbc="F F F"
C        2.70580482      -4.15014076       1.18015289
C        4.06395912      -4.72643852       0.92997742
Cl       4.24986458      -5.29929543      -0.79122925
H        2.64270401      -3.70112801       2.20049667
H        2.58919907      -3.29879761       0.49848938
H        1.86293983      -4.84704018       1.01911163
H        4.27884102      -5.58373451       1.57926941
H        4.82970238      -3.99239922       1.08850098
8
Properties=species:S:1:pos:R:3 name=EtCl mapped_smiles="[C:1]([C:2]([Cl:3])([H:7])[H:8])([H:4])([H:5])[H:6]" pbc="F F F"
C        0.00000000       0.00000000       0.00000000
C        1.07593155      -1.14954567       0.11161232
Cl       0.38503838      -2.56511116       1.00644684
H       -0.89799500      -0.26886559      -0.57476234
H       -0.32920647       0.22893715       1.03132439
H        0.47850037       0.87745857      -0.41959572
H        1.90085983      -0.78721809       0.76128769
H        1.47248650      -1.39045906      -0.85095215
8
Properties=species:S:1:pos:R:3 name=EtCl mapped_smiles="[C:1]([C:2]([Cl:3])([H:7])[H:8])([H:4])([H:5])[H:6]" pbc="F F F"
C        0.00000000       0.00000000       0.00000000
C        0.36921120      -1.34839630      -0.60305786
Cl       2.10606575      -1.45859528      -1.05917740
H        0.27735519       0.85177994      -0.61825943
H       -1.06735039       0.11438751       0.20419693
H        0.51138878       0.14936066       0.97395325
H       -0.17486382      -1.51375580      -1.52172852
H        0.22248840      -2.15404510       0.03841019
8
Properties=species:S:1:pos:R:3 name=EtCl mapped_smiles="[C:1]([C:2]([Cl:3])([H:7])[H:8])([H:4])([H:5])[H:6]" pbc="F F F"
C       -3.64706230       1.90039253      -8.18110847
C       -2.25816154       1.37917900      -8.51748085
Cl      -2.27559471      -0.26830482      -8.46858406
H       -3.71681023       3.00695610      -8.08149910
H       -4.36190987       1.71474648      -8.94984627
H       -4.09851646       1.46107292      -7.33779335
H       -1.43025780       1.63371086      -7.82839394
H       -2.02391243       1.72127342      -9.51700020
8
Properties=species:S:1:pos:R:3 name=EtCl mapped_smiles="[C:1]([C:2]([Cl:3])([H:7])[H:8])([H:4])([H:5])[H:6]" pbc="F F F"
C       -1.99020386      -4.96773911      -8.07380486
C       -2.39197540      -4.26303101      -6.78742027
Cl      -1.21291351      -2.96638870      -6.33141899
H       -2.56878662      -5.93061066      -8.18926048
H       -2.34617615      -4.26823044      -8.84837151
H       -0.91567230      -5.18872833      -8.09908867
H       -2.63350296      -4.93516159      -6.00992393
H       -3.30726624      -3.69681931      -6.89609337
8
Properties=species:S:1:pos:R:3 name=EtCl mapped_smiles="[C:1]([C:2]([Cl:3])([H:7])[H:8])([H:4])([H:5])[H:6]" pbc="F F F"
C        0.00000000       0.00000000       0.00000000
C       -1.08223152       0.50333595      -0.91650581
Cl      -1.74549294      -0.89047432      -1.68680573
H        0.79055595      -0.52728653      -0.60647583
H        0.40193367       0.79369354       0.65488815
H       -0.43057060      -0.74008560       0.69409943
H       -0.68865776       1.22024155      -1.67322350
H       -1.80450630       1.09676743      -0.33534241
8
Properties=species:S:1:pos:R:3 name=EtCl mapped_smiles="[C:1]([C:2]([Cl:3])([H:7])[H:8])([H:4])([H:5])[H:6]" pbc="F F F"
C        0.00000000       0.00000000       0.00000000
C        1.04354095      -0.94362450      -0.58283997
Cl       0.33967590      -1.96419716      -1.84035492
H       -0.43394852       0.70296669      -0.77990723
H       -0.89653778      -0.57888222       0.46467590
H        0.47285461       0.54729271       0.80634308
H        1.59650040      -1.61542511       0.11644745
H        1.72647476      -0.28809929      -1.14570618
8
Properties=species:S:1:pos:R:3 name=EtCl mapped_smiles="[C:1]([C:2]([Cl:3])([H:7])[H:8])([H:4])([H:5])[H:6]" pbc="F F F"
C       -1.20965195      -7.04479027      -1.47480965
C       -0.38829231      -7.17668724      -2.81339836
Cl      -1.19308853      -8.22447014      -3.90396309
H       -0.57543755      -6.58260918      -0.69326210
H       -2.22650337      -6.48820496      -1.64476204
H       -1.37957954      -8.06397057      -1.07933426
H        0.63565826      -7.56394768      -2.59556389
H       -0.19761276      -6.30747986      -3.33231354
8
Properties=species:S:1:pos:R:3 name=EtCl mapped_smiles="[C:1]([C:2]([Cl:3])([H:7])[H:8])([H:4])([H:5])[H:6]" pbc="F F F"
C        0.00000000       0.00000000       0.00000000
C       -1.10637093      -0.70612717      -0.75177765
Cl      -0.84754372      -0.66299057      -2.57773972
H       -0.15007973       1.06019974      -0.11833572
H       -0.01707268      -0.19424057       1.03299332
H        1.04542351      -0.25280380      -0.36770248
H       -2.10325050      -0.20713806      -0.64421844
H       -1.17943192      -1.79120255      -0.70642471
8
Properties=species:S:1:pos:R:3 name=EtCl mapped_smiles="[C:1]([C:2]([Cl:3])([H:7])[H:8])([H:4])([H:5])[H:6]" pbc="F F F"
C        0.00000000       0.00000000       0.00000000
C       -0.47557068       1.32819748       0.21100616
Cl       0.84095383       2.44409561       0.74254608
H       -0.87850571      -0.69619751      -0.16331863
H        0.48659897      -0.14352036      -1.00023270
H        0.60205460      -0.50259399       0.71644211
H       -1.13753891       1.38214874       1.07989883
H       -1.05179214       1.71914291      -0.64796448
8
Properties=species:S:1:pos:R:3 name=EtCl mapped_smiles="[C:1]([C:2]([Cl:3])([H:7])[H:8])([H:4])([H:5])[H:6]" pbc="F F F"
C        0.00000000       0.00000000       0.00000000
C       -0.91072845      -0.11116409      -1.15575027
Cl      -1.79489899      -1.67673111      -1.16187286
H        0.73473740      -0.78490067      -0.08633423
H        0.45683670       1.02285385       0.01195908
H       -0.48406219      -0.17115402       0.96892548
H       -0.30216599       0.00186157      -2.07651520
H       -1.73972321       0.62154388      -1.22148895
8
Properties=species:S:1:pos:R:3 name=EtCl mapped_smiles="[C:1]([C:2]([Cl:3])([H:7])[H:8])([H:4])([H:5])[H:6]" pbc="F F F"
C        4.08758736      -3.72834015      -0.06141281
C        2.82686043      -3.04743576      -0.40946198
Cl       2.52231789      -2.80565262      -2.24920273
H        4.27118874      -4.70253372      -0.60428238
H        4.92648506      -3.06043625      -0.17972946
H        4.10669136      -3.94657898       1.01826096
H        2.75972176      -2.02528381      -0.00442123
H        1.91976357      -3.48495483      -0.07455444
8
Properties=species:S:1:pos:R:3 name=EtCl mapped_smiles="[C:1]([C:2]([Cl:3])([H:7])[H:8])([H:4])([H:5])[H:6]" pbc="F F F"
C        0.00000000       0.00000000       0.00000000
C       -0.87288094      -1.25152969      -0.16218376
Cl      -2.11898041      -1.08316040      -1.50190735
H        0.62190056       0.29001999      -0.85872650
H       -0.52856255       0.92864609       0.19634056
H        0.76283073      -0.10275269       0.77613640
H       -1.45209122      -1.38277435       0.78695107
H       -0.24681282      -2.11647797      -0.34272194
8
Properties=species:S:1:pos:R:3 name=EtCl mapped_smiles="[C:1]([C:2]([Cl:3])([H:7])[H:8])([H:4])([H:5])[H:6]" pbc="F F F"
C        0.00000000       0.00000000       0.00000000
C        0.40332794      -1.35551834       0.45933151
Cl      -0.19171906      -1.78740311       2.08487511
H        0.68600464       0.73300171       0.41451263
H        0.17298126       0.09113312      -1.07038307
H       -1.03470612       0.22126389       0.12922478
H        1.43378448      -1.70371246       0.49279404
H       -0.02684784      -2.12061310      -0.15157127
8
Properties=species:S:1:pos:R:3 name=EtCl mapped_smiles="[C:1]([C:2]([Cl:3])([H:7])[H:8])([H:4])([H:5])[H:6]" pbc="F F F"
C       -1.20457268       4.26102257       3.50601578
C       -2.51573753       3.75285530       2.96261597
Cl      -2.36897850       2.56275368       1.66423798
H       -1.27887535       5.12288094       4.21000290
H       -0.75110245       3.40244865       3.99488068
H       -0.55137253       4.61258125       2.70116806
H       -3.08952904       4.56711388       2.50794983
H       -3.16538048       3.36803627       3.75087738
8
Properties=species:S:1:pos:R:3 name=EtCl mapped_smiles="[C:1]([C:2]([Cl:3])([H:7])[H:8])([H:4])([H:5])[H:6]" pbc="F F F"
C        0.00000000       0.00000000       0.00000000
C       -1.06548691       0.80176544       0.62749481
Cl      -2.63396645       0.28448486      -0.09243011
H       -0.20066261      -1.08348846      -0.02640533
H        0.09059525       0.36253738      -1.02000427
H        0.89286232       0.15968323       0.53881264
H       -1.04188156       1.84145355       0.39567947
H       -1.16437531       0.85027313       1.70041847
8
Properties=species:S:1:pos:R:3 name=EtCl mapped_smiles="[C:1]([C:2]([Cl:3])([H:7])[H:8])([H:4])([H:5])[H:6]" pbc="F F F"
C       -2.15139389      -4.03523254       1.17312241
C       -1.42450333      -3.33797836       2.24774742
Cl      -2.15044212      -1.67389488       2.48624611
H       -2.13278961      -3.54534531       0.16480064
H       -1.82582474      -5.03530121       1.04755020
H       -3.23965073      -4.13007164       1.45219612
H       -0.36732674      -3.29296303       1.94967651
H       -1.49063873      -3.87248230       3.20420074
8
Properties=species:S:1:pos:R:3 name=EtCl mapped_smiles="[C:1]([C:2]([Cl:3])([H:7])[H:8])([H:4])([H:5])[H:6]" pbc="F F F"
C       -0.95630836       3.09026146      -1.65683746
C       -1.56206512       3.55996895      -0.29297256
Cl      -1.31829453       5.33523369      -0.11183167
H        0.10460281       3.26331139      -1.68371201
H       -1.10354233       2.00656700      -1.84639359
H       -1.53464127       3.58563995      -2.48075104
H       -1.09772110       3.08627129       0.55298615
H       -2.65768051       3.26848412      -0.27941132
8
Properties=species:S:1:pos:R:3 name=EtCl mapped_smiles="[C:1]([C:2]([Cl:3])([H:7])[H:8])([H:4])([H:5])[H:6]" pbc="F F F"
C        0.37939453       4.83324814       6.73949242
C       -0.25377655       4.89597702       8.05870628
Cl      -0.88402176       3.25548172       8.56332970
H       -0.22284698       4.39752579       5.92551994
H        0.58198929       5.84528351       6.40181541
H        1.41304779       4.32355881       6.85733032
H       -1.05419159       5.57798767       8.10421562
H        0.32352829       5.25849533       8.96666527
8
Properties=species:S:1:pos:R:3 name=EtCl mapped_smiles="[C:1]([C:2]([Cl:3])([H:7])[H:8])([H:4])([H:5])[H:6]" pbc="F F F"
C        4.44813919      -4.45258904       1.39698792
C        3.02835464      -4.09087944       1.77655792
Cl       2.27920151      -5.43266106       2.50625992
H        4.44844437      -5.11513329       0.50635147
H        4.90501022      -3.46345329       1.03324127
H        5.01160049      -4.80711174       2.28842545
H        2.45393753      -3.89791679       0.82880783
H        2.99816895      -3.14837456       2.33292007
8
Properties=species:S:1:pos:R:3 name=EtCl mapped_smiles="[C:1]([C:2]([Cl:3])([H:7])[H:8])([H:4])([H:5])[H:6]" pbc="F F F"
C        1.24380112      -2.74867058       3.95256424
C        0.35874176      -2.35650826       5.18835449
Cl      -0.88142395      -1.18914413       4.85636520
H        0.78150940      -3.21243858       3.08706284
H        1.85353851      -1.86513710       3.68926620
H        1.96787262      -3.54396248       4.26165771
H        0.93240356      -2.12719536       6.05569458
H       -0.17108154      -3.22366714       5.61337662
8
Properties=species:S:1:pos:R:3 name=EtCl mapped_smiles="[C:1]([C:2]([Cl:3])([H:7])[H:8])([H:4])([H:5])[H:6]" pbc="F F F"
C       -3.63212395       0.24482155      -1.22181320
C       -5.00610924      -0.31095314      -1.11810684
Cl      -6.23688698       1.04183769      -0.76344681
H       -2.85795021      -0.44087029      -1.52731705
H       -3.60941124       1.07981300      -1.96040726
H       -3.30750465       0.68533516      -0.28910446
H       -5.08437538      -0.99627113      -0.27087784
H       -5.33553505      -0.79532814      -2.05885696
8
Properties=species:S:1:pos:R:3 name=EtCl mapped_smiles="[C:1]([C:2]([Cl:3])([H:7])[H:8])([H:4])([H:5])[H:6]" pbc="F F F"
C       -3.61402130      -0.96972275       2.11660194
C       -4.45078659      -0.02847672       1.20700264
Cl      -3.65859985       1.46672058       0.70881462
H       -2.51844788      -0.91313934       1.80787849
H       -3.67693710      -0.59806442       3.09919357
H       -3.95903397      -2.06462288       2.01864815
H       -5.25317383       0.30663681       1.87335587
H       -4.89296341      -0.53245544       0.33210373
8
Properties=species:S:1:pos:R:3 name=EtCl mapped_smiles="[C:1]([C:2]([Cl:3])([H:7])[H:8])([H:4])([H:5])[H:6]" pbc="F F F"
C        1.46012878       3.15044785      -3.07779312
C        1.66806602       2.14060402      -4.23026657
Cl       3.36337280       1.46253777      -4.33567810
H        1.60904503       2.64486313      -2.11531448
H        2.15038872       3.96497154      -3.14835739
H        0.46780777       3.54912758      -3.09593582
H        1.50975609       2.60720444      -5.24682236
H        1.10236168       1.21741104      -4.08971786
8
Properties=species:S:1:pos:R:3 name=EtCl mapped_smiles="[C:1]([C:2]([Cl:3])([H:7])[H:8])([H:4])([H:5])[H:6]" pbc="F F F"
C       -3.63415527      -0.40055847       0.73917770
C       -5.16305542      -0.61260033       0.84276199
Cl      -5.85124588      -0.73527718      -0.77648163
H       -3.27888489      -1.25011635       0.16921616
H       -3.30334473       0.52108574       0.33299255
H       -3.09973145      -0.58214378       1.75969696
H       -5.55902863       0.18262100       1.41563797
H       -5.47189331      -1.51364517       1.24327850
8
Properties=species:S:1:pos:R:3 name=EtCl mapped_smiles="[C:1]([C:2]([Cl:3])([H:7])[H:8])([H:4])([H:5])[H:6]" pbc="F F F"
C        2.91210365      -2.39376068      -2.75534058
C        2.33334732      -3.49557114      -1.96284676
Cl       1.48667336      -2.86619949      -0.54053879
H        3.37410927      -2.80575180      -3.71254921
H        2.17671204      -1.63817978      -2.94204903
H        3.78269768      -1.95264816      -2.24190903
H        3.04194260      -4.21512985      -1.58553505
H        1.68684769      -4.10676956      -2.53082848
8
Properties=species:S:1:pos:R:3 name=EtCl mapped_smiles="[C:1]([C:2]([Cl:3])([H:7])[H:8])([H:4])([H:5])[H:6]" pbc="F F F"
C       -6.61162186      -6.32206726       1.14791107
C       -5.31689835      -6.04849243       0.32255936
Cl      -3.76166916      -6.25868988       1.12544632
H       -7.46833420      -6.38946533       0.41392136
H       -6.63125229      -7.30911255       1.52468491
H       -6.80821609      -5.64711761       1.94981766
H       -5.41765976      -5.02349091       0.07292175
H       -5.34344101      -6.52352905      -0.63327026
8
Properties=species:S:1:pos:R:3 name=EtCl mapped_smiles="[C:1]([C:2]([Cl:3])([H:7])[H:8])([H:4])([H:5])[H:6]" pbc="F F F"
C       -6.29412460      -3.60470772      -4.51642227
C       -4.92574310      -3.36215019      -3.97250748
Cl      -4.67304039      -2.13187027      -2.65008545
H       -6.33056831      -4.38587761      -5.30493546
H       -7.06770515      -3.88752747      -3.77452469
H       -6.76947594      -2.69020271      -4.97668457
H       -4.16925240      -3.17705917      -4.76560974
H       -4.55415154      -4.24121284      -3.50784302
8
Properties=species:S:1:pos:R:3 name=EtCl mapped_smiles="[C:1]([C:2]([Cl:3])([H:7])[H:8])([H:4])([H:5])[H:6]" pbc="F F F"
C        0.00000000       0.00000000       0.00000000
C       -0.72606277       0.48285675      -1.23697472
Cl      -1.41921616       2.14014435      -0.92423630
H        0.46860123      -0.90988922      -0.13724899
H        0.84018326       0.76982117       0.09954834
H       -0.56825638       0.04827118       0.94277954
H       -1.46714783      -0.17248535      -1.44330215
H       -0.18753815       0.48328400      -2.20183563
8
Properties=species:S:1:pos:R:3 name=EtCl mapped_smiles="[C:1]([C:2]([Cl:3])([H:7])[H:8])([H:4])([H:5])[H:6]" pbc="F F F"
C        1.61935616      -2.69900513      -2.16910744
C        2.73841286      -2.88149071      -1.12635231
Cl       3.28387642      -4.59851074      -0.97628593
H        0.76300812      -3.21582794      -1.77499580
H        1.26322174      -1.68687630      -2.26703835
H        1.89260483      -3.07556534      -3.15122414
H        2.41521835      -2.43701935      -0.14101219
H        3.58288574      -2.34396362      -1.50455666
8
Properties=species:S:1:pos:R:3 name=EtCl mapped_smiles="[C:1]([C:2]([Cl:3])([H:7])[H:8])([H:4])([H:5])[H:6]" pbc="F F F"
C        0.62355423       7.77321053       4.79269600
C        1.03857422       8.90963936       5.65412140
Cl       2.12669754       8.23642159       6.91782570
H        0.28107071       6.93021965       5.44298935
H       -0.16277695       8.13381004       4.07029533
H        1.48290634       7.34139061       4.22790337
H        0.16931915       9.26941490       6.16227531
H        1.47032547       9.82155418       5.22559166
8
Properties=species:S:1:pos:R:3 name=EtCl mapped_smiles="[C:1]([C:2]([Cl:3])([H:7])[H:8])([H:4])([H:5])[H:6]" pbc="F F F"
C        4.41369438       0.79877090      -2.08769035
C        5.64188957       0.50148964      -1.31086922
Cl       5.57861900       0.68984413       0.45271301
H        3.53024864       0.22467995      -1.72406387
H        4.12745094       1.83954620      -1.80193520
H        4.50420570       0.79004097      -3.14363289
H        6.41701317       1.16856766      -1.59963226
H        5.94833946      -0.51807785      -1.51850319
8
Properties=species:S:1:pos:R:3 name=EtCl mapped_smiles="[C:1]([C:2]([Cl:3])([H:7])[H:8])([H:4])([H:5])[H:6]" pbc="F F F"
C       -6.50790405      -3.82847023      -2.94228935
C       -5.98536682      -2.64387703      -2.13989067
Cl      -5.71366119      -3.03753471      -0.37281609
H       -5.71808624      -4.61730194      -2.91899681
H       -7.49526215      -4.23006248      -2.65826988
H       -6.70684814      -3.46155548      -3.88178062
H       -6.69210052      -1.80110550      -2.04723167
H       -5.03773499      -2.33747482      -2.55954552
8
Properties=species:S:1:pos:R:3 name=EtCl mapped_smiles="[C:1]([C:2]([Cl:3])([H:7])[H:8])([H:4])([H:5])[H:6]" pbc="F F F"
C        0.00000000       0.00000000       0.00000000
C        1.36252213      -0.42895126      -0.42261505
Cl       1.92068100      -1.81323242       0.53643036
H        0.00999069       0.27441788       1.03060913
H       -0.34802246       0.95380020      -0.44798279
H       -0.78728104      -0.66342545      -0.28462982
H        2.07432175       0.32272339      -0.32641602
H        1.40493774      -0.55639648      -1.59287262
8
Properties=species:S:1:pos:R:3 name=EtCl mapped_smiles="[C:1]([C:2]([Cl:3])([H:7])[H:8])([H:4])([H:5])[H:6]" pbc="F F F"
C       -3.87954712      -0.06677055      -1.38796616
C       -4.62995148      -1.41448975      -1.47612762
Cl      -4.09529114      -2.55706215      -0.12531281
H       -4.31233215       0.70847511      -1.98951721
H       -3.81426239       0.22962952      -0.27872086
H       -2.86367035      -0.11244011      -1.79613113
H       -4.48877716      -1.88928413      -2.38908386
H       -5.71617508      -1.40678024      -1.35831451
8
Properties=species:S:1:pos:R:3 name=EtCl mapped_smiles="[C:1]([C:2]([Cl:3])([H:7])[H:8])([H:4])([H:5])[H:6]" pbc="F F F"
C        2.24508286       1.35255432       3.06441879
C        2.98495102       0.84648514       1.84925461
Cl       3.44777298       2.18364716       0.69823074
H        2.70628357       2.23339081       3.53938293
H        1.14454651       1.51036072       2.78509903
H        2.24387360       0.57286453       3.84282303
H        2.37227249       0.08866119       1.26501846
H        3.91144943       0.29627228       2.13143158
