9
Properties=species:S:1:pos:R:3 name=EtSH mapped_smiles="[C:1]([C:2]([S:3][H:9])([H:7])[H:8])([H:4])([H:5])[H:6]" pbc="F F F"
C        0.00000000       0.00000000       0.00000000
C        0.74616241       0.85964203      -0.89314651
S        0.15691757       2.61445999      -0.88616562
H        0.46326447      -0.91826248      -0.11616516
H       -1.03695107      -0.16761780      -0.26586151
H        0.21932411       0.32431412       1.01762009
H        0.65655518       0.52399445      -1.86735916
H        1.84403801       0.76228714      -0.66941071
H        1.28509140       3.16075516      -0.99835205
9
Properties=species:S:1:pos:R:3 name=EtSH mapped_smiles="[C:1]([C:2]([S:3][H:9])([H:7])[H:8])([H:4])([H:5])[H:6]" pbc="F F F"
C        0.00000000       0.00000000       0.00000000
C       -0.29772949       1.23893738      -0.74541473
S       -1.02234650       1.00967598      -2.39988518
H        0.62570190       0.21508598       0.90125275
H        0.65325928      -0.68407249      -0.62177277
H       -0.88449860      -0.51802254       0.29546356
H        0.58823395       1.87292290      -0.84497833
H       -1.11328888       1.78195763      -0.24447632
H       -0.08229065       0.28561592      -2.76597404
9
Properties=species:S:1:pos:R:3 name=EtSH mapped_smiles="[C:1]([C:2]([S:3][H:9])([H:7])[H:8])([H:4])([H:5])[H:6]" pbc="F F F"
C       -6.94547272       3.62961960       1.58278465
C       -6.42903709       4.74578094       2.52376938
S       -6.94078636       4.72006607       4.27433586
H       -6.47487831       3.50796890       0.56312752
H       -8.00016403       3.75320816       1.35037422
H       -6.74477386       2.63758087       1.93935013
H       -6.59879303       5.71846390       2.14668655
H       -5.29711533       4.74295425       2.46072197
H       -6.50520515       3.50411224       4.58846855
9
Properties=species:S:1:pos:R:3 name=EtSH mapped_smiles="[C:1]([C:2]([S:3][H:9])([H:7])[H:8])([H:4])([H:5])[H:6]" pbc="F F F"
C        1.77450562       3.58990288      -3.39042473
C        0.66599274       2.58392143      -3.52501106
S        1.39429474       0.90991020      -3.95566368
H        2.34986877       3.38154221      -2.43315506
H        1.46285248       4.59746552      -3.29601479
H        2.51225281       3.51335335      -4.26622009
H        0.02635193       2.98245811      -4.38661575
H        0.16740417       2.53695679      -2.61221313
H        2.24555206       1.32373047      -4.87336349
9
Properties=species:S:1:pos:R:3 name=EtSH mapped_smiles="[C:1]([C:2]([S:3][H:9])([H:7])[H:8])([H:4])([H:5])[H:6]" pbc="F F F"
C        0.00000000       0.00000000       0.00000000
C       -1.30936050       0.64529800      -0.36077881
S       -1.38343620       1.38852692      -1.96095276
H        0.30391884      -0.90790749      -0.50265884
H        0.00101662      -0.38187790       1.12055206
H        0.86468506       0.70788765      -0.04468155
H       -1.53958893       1.49633789       0.30598068
H       -2.16730499      -0.01745415      -0.12804413
H       -0.07300377       1.37532425      -2.17930984
9
Properties=species:S:1:pos:R:3 name=EtSH mapped_smiles="[C:1]([C:2]([S:3][H:9])([H:7])[H:8])([H:4])([H:5])[H:6]" pbc="F F F"
C        1.98466301       2.72913170      -4.28416634
C        2.73183250       1.87401390      -3.23720551
S        4.53658104       2.15082359      -3.20724487
H        0.86812782       2.48093605      -4.32781029
H        2.41409874       2.59957314      -5.26189041
H        2.00317383       3.74856377      -3.95217133
H        2.45094109       0.79569435      -3.33712387
H        2.45281792       2.11850929      -2.21586037
H        4.76223183       1.72614288      -4.34002495
9
Properties=species:S:1:pos:R:3 name=EtSH mapped_smiles="[C:1]([C:2]([S:3][H:9])([H:7])[H:8])([H:4])([H:5])[H:6]" pbc="F F F"
C        5.46134949      -0.72069931       1.36375809
C        5.62986755      -1.74969482       0.28513336
S        7.35056114      -2.20620346      -0.16798019
H        5.97710419      -1.04991531       2.29066467
H        4.35932159      -0.65403748       1.59513092
H        5.78382874       0.30026245       1.07753372
H        5.13509369      -1.37464142      -0.63491821
H        5.08200073      -2.62859726       0.53023911
H        7.90337944      -1.10401154      -0.42315292
9
Properties=species:S:1:pos:R:3 name=EtSH mapped_smiles="[C:1]([C:2]([S:3][H:9])([H:7])[H:8])([H:4])([H:5])[H:6]" pbc="F F F"
C       -2.20739937      -1.54916191      -5.21350098
C       -2.80599403      -0.21113014      -5.07864189
S       -4.56321907      -0.34970284      -4.77218819
H       -2.47251701      -2.26544380      -4.44817924
H       -1.13080406      -1.45218468      -5.17700386
H       -2.47741890      -1.98706245      -6.15155792
H       -2.76993752       0.46201134      -5.91541481
H       -2.36473274       0.30952644      -4.17037010
H       -4.99861526      -0.05244637      -5.89261627
9
Properties=species:S:1:pos:R:3 name=EtSH mapped_smiles="[C:1]([C:2]([S:3][H:9])([H:7])[H:8])([H:4])([H:5])[H:6]" pbc="F F F"
C        0.00000000       0.00000000       0.00000000
C        1.32633972      -0.44042206       0.48632812
S        1.57490921      -2.25954056       0.64134216
H       -0.13845062      -0.17621613      -1.06704521
H       -0.05542755       1.09293365       0.14389420
H       -0.79815674      -0.38293457       0.67902565
H        1.54329681      -0.10757828       1.51379013
H        2.10223770      -0.13536453      -0.25559044
H        1.09565735      -2.47701645      -0.58022118
9
Properties=species:S:1:pos:R:3 name=EtSH mapped_smiles="[C:1]([C:2]([S:3][H:9])([H:7])[H:8])([H:4])([H:5])[H:6]" pbc="F F F"
C       -1.12408829       1.96014214      -4.55157280
C       -0.49796104       2.59300232      -5.85207558
S       -0.39039421       1.57417297      -7.37994385
H       -1.43294716       2.70116806      -3.82342529
H       -0.46919823       1.33113480      -4.01215935
H       -2.08743095       1.45291519      -4.75527382
H        0.49017525       2.92418671      -5.67960548
H       -1.11543846       3.44112587      -6.11016273
H       -0.50897598       2.49032402      -8.19662857
9
Properties=species:S:1:pos:R:3 name=EtSH mapped_smiles="[C:1]([C:2]([S:3][H:9])([H:7])[H:8])([H:4])([H:5])[H:6]" pbc="F F F"
C       -4.87673187      -0.74160004       5.28864098
C       -5.69561768       0.20575905       4.55361176
S       -7.48175812      -0.07425690       4.93094063
H       -5.11597824      -0.75090981       6.33327675
H       -3.83625793      -0.44686890       5.17394257
H       -5.01948547      -1.75798798       4.89449692
H       -5.41501236       0.01402664       3.49837685
H       -5.39789963       1.29426003       4.57838058
H       -7.66510010       0.09372330       6.20608902
9
Properties=species:S:1:pos:R:3 name=EtSH mapped_smiles="[C:1]([C:2]([S:3][H:9])([H:7])[H:8])([H:4])([H:5])[H:6]" pbc="F F F"
C        1.57385826      -1.74024963      -4.49448776
C        2.71226692      -2.68258286      -4.09367752
S        2.53851128      -3.57381058      -2.51338577
H        0.62393951      -2.31614304      -4.71377182
H        1.85181808      -1.29423523      -5.42184448
H        1.42104721      -1.00163269      -3.72587967
H        3.64069939      -2.13454819      -3.94678879
H        2.92330551      -3.40013123      -4.92013168
H        1.56501389      -2.84884262      -2.07424545
9
Properties=species:S:1:pos:R:3 name=EtSH mapped_smiles="[C:1]([C:2]([S:3][H:9])([H:7])[H:8])([H:4])([H:5])[H:6]" pbc="F F F"
C       -1.08991051      -5.13683701      -1.37536621
C       -2.45530128      -4.66310883      -0.87779999
S       -2.32961845      -4.01905823       0.81593704
H       -0.39073753      -4.31650925      -1.36278152
H       -1.02926445      -5.41016769      -2.39647675
H       -0.75602913      -6.02383041      -0.83577347
H       -3.14494133      -5.51342773      -0.86706161
H       -2.81818199      -3.88185501      -1.61744690
H       -3.47630501      -3.40862274       0.95870972
9
Properties=species:S:1:pos:R:3 name=EtSH mapped_smiles="[C:1]([C:2]([S:3][H:9])([H:7])[H:8])([H:4])([H:5])[H:6]" pbc="F F F"
C        0.00854111      -2.68716431      -2.69371796
C        1.38768768      -2.09435654      -2.99572945
S        2.66202164      -3.31752777      -3.50494576
H       -0.39389801      -3.34581757      -3.46887779
H       -0.73582458      -1.95511246      -2.30684090
H        0.15204620      -3.34344864      -1.84327888
H        1.61945343      -1.56376648      -2.07862663
H        1.39067841      -1.37709045      -3.81431198
H        2.56961060      -4.03216171      -2.49776840
9
Properties=species:S:1:pos:R:3 name=EtSH mapped_smiles="[C:1]([C:2]([S:3][H:9])([H:7])[H:8])([H:4])([H:5])[H:6]" pbc="F F F"
C        3.96727562      -0.99005127      -4.35853577
C        4.30648804      -1.48146057      -2.88668823
S        3.42077637      -0.51623535      -1.59900665
H        4.00184822       0.14163208      -4.41484070
H        2.98985863      -1.28262329      -4.72302246
H        4.65984535      -1.33486176      -5.16538620
H        5.36033058      -1.36283875      -2.69208527
H        4.06852531      -2.53897095      -2.76888275
H        2.17785835      -0.85671997      -2.00622940
9
Properties=species:S:1:pos:R:3 name=EtSH mapped_smiles="[C:1]([C:2]([S:3][H:9])([H:7])[H:8])([H:4])([H:5])[H:6]" pbc="F F F"
C        0.00000000       0.00000000       0.00000000
C        1.30055809       0.36067963      -0.69336319
S        2.53183746       1.22192383       0.45731735
H       -0.30244827       0.96701050       0.36124420
H        0.12992287      -0.81059265       0.76188278
H       -0.68517685      -0.40217590      -0.70063019
H        1.10847473       1.02463531      -1.51103592
H        1.67865372      -0.60589600      -1.14369583
H        2.22095108       0.59457397       1.59279633
9
Properties=species:S:1:pos:R:3 name=EtSH mapped_smiles="[C:1]([C:2]([S:3][H:9])([H:7])[H:8])([H:4])([H:5])[H:6]" pbc="F F F"
C        3.63428497      -1.79644012       1.12146187
C        3.30681992      -3.14295959       0.68616676
S        4.63661385      -4.31651688       1.12336540
H        4.66314888      -1.56714249       0.70899010
H        3.41294479      -1.73454666       2.16173553
H        2.98033524      -1.00786972       0.70174408
H        3.15760803      -3.30643082      -0.37065315
H        2.37833405      -3.42525101       1.23375511
H        4.97519493      -3.64576340       2.16200638
9
Properties=species:S:1:pos:R:3 name=EtSH mapped_smiles="[C:1]([C:2]([S:3][H:9])([H:7])[H:8])([H:4])([H:5])[H:6]" pbc="F F F"
C        1.68677711       3.49930573       3.42507172
C        0.26020432       2.93007660       3.26690674
S       -0.94079781       3.44853210       4.51061821
H        2.34105492       3.27685165       2.59324265
H        2.19701004       3.08347321       4.29420280
H        1.69337273       4.53257751       3.57178879
H        0.36906242       1.76747894       3.18005753
H       -0.21633720       3.24618530       2.34498215
H       -0.61037827       4.67942429       4.47461891
9
Properties=species:S:1:pos:R:3 name=EtSH mapped_smiles="[C:1]([C:2]([S:3][H:9])([H:7])[H:8])([H:4])([H:5])[H:6]" pbc="F F F"
C        2.71669769       4.09590340       2.01484299
C        3.44986343       2.83804512       2.59570694
S        5.17980194       3.14392662       2.88572311
H        1.67686462       3.78115273       1.87804794
H        3.15415573       4.41424370       1.10686874
H        2.65269089       4.99278450       2.66270828
H        3.40108871       1.99527168       1.91183853
H        2.91179276       2.60790062       3.52978134
H        5.42650986       1.99944115       3.36825943
9
Properties=species:S:1:pos:R:3 name=EtSH mapped_smiles="[C:1]([C:2]([S:3][H:9])([H:7])[H:8])([H:4])([H:5])[H:6]" pbc="F F F"
C        1.66636086       2.85958099       2.85286903
C        2.72972870       3.08341599       1.83621788
S        4.16662979       4.21702576       2.38835716
H        1.18692398       3.81458282       3.07066345
H        2.14928246       2.51656342       3.76678085
H        0.87306404       2.21807861       2.51556587
H        2.26465797       3.48743439       0.93731499
H        3.26605225       2.10684204       1.53435326
H        3.54198837       5.35799789       2.49410248
9
Properties=species:S:1:pos:R:3 name=EtSH mapped_smiles="[C:1]([C:2]([S:3][H:9])([H:7])[H:8])([H:4])([H:5])[H:6]" pbc="F F F"
C       -4.14116287      -3.62673569       4.90118790
C       -4.13969612      -5.07911682       5.52535820
S       -2.68337822      -5.92927551       4.96016312
H       -3.90640259      -3.76807213       3.86145592
H       -3.49180412      -2.96298981       5.42270279
H       -5.16166496      -3.14361572       4.94455910
H       -4.99375343      -5.62000847       5.18137741
H       -4.11656189      -4.90175438       6.58155823
H       -3.15678978      -7.04096985       5.29898834
9
Properties=species:S:1:pos:R:3 name=EtSH mapped_smiles="[C:1]([C:2]([S:3][H:9])([H:7])[H:8])([H:4])([H:5])[H:6]" pbc="F F F"
C        7.51816750      -0.73182869       4.78747177
C        6.62852669      -0.21925163       3.71023941
S        5.33610725       0.97612572       4.29716110
H        7.74845314      -0.04649544       5.59225845
H        8.41467094      -1.20203209       4.36123276
H        6.99145317      -1.50381279       5.34466934
H        5.95850563      -0.99450874       3.27595139
H        7.20218849       0.19134712       2.90414810
H        5.02488136       1.46651268       3.16134262
9
Properties=species:S:1:pos:R:3 name=EtSH mapped_smiles="[C:1]([C:2]([S:3][H:9])([H:7])[H:8])([H:4])([H:5])[H:6]" pbc="F F F"
C        0.00000000       0.00000000       0.00000000
C        1.11754227      -0.65951157      -0.86535072
S        1.40353394       0.30824280      -2.47224236
H       -0.93079376      -0.04351425      -0.54039001
H        0.16276169       1.10902023       0.15654755
H       -0.09647751      -0.52782059       0.93574333
H        0.78696442      -1.64215088      -1.07780647
H        1.99436569      -0.77587891      -0.27612686
H        1.80649567      -0.72042847      -3.17912865
9
Properties=species:S:1:pos:R:3 name=EtSH mapped_smiles="[C:1]([C:2]([S:3][H:9])([H:7])[H:8])([H:4])([H:5])[H:6]" pbc="F F F"
C        0.00000000       0.00000000       0.00000000
C       -0.42437363      -1.14926720       0.95042801
S        0.22237015      -0.94841194       2.60134888
H       -0.31071854      -0.31476021      -1.04763794
H        1.06467056       0.12508774       0.10344315
H       -0.52191925       0.91459084       0.31863022
H       -0.05275726      -2.06509209       0.54698944
H       -1.55822372      -1.18758583       0.94518661
H       -0.16716766       0.25793648       2.71887207
9
Properties=species:S:1:pos:R:3 name=EtSH mapped_smiles="[C:1]([C:2]([S:3][H:9])([H:7])[H:8])([H:4])([H:5])[H:6]" pbc="F F F"
C        0.00000000       0.00000000       0.00000000
C       -0.20507812       0.56963730       1.42845917
S        1.29503632       1.30786896       2.12814331
H        0.72012329      -0.79579163       0.03766632
H        0.44628143       0.78640747      -0.63467407
H       -0.95215988      -0.51489639      -0.35981750
H       -0.40298080      -0.25004196       2.15335083
H       -0.97845840       1.33563614       1.50161743
H        1.22691727       2.30986404       1.37390900
9
Properties=species:S:1:pos:R:3 name=EtSH mapped_smiles="[C:1]([C:2]([S:3][H:9])([H:7])[H:8])([H:4])([H:5])[H:6]" pbc="F F F"
C       -1.64369392       3.03407288      -7.45405579
C       -2.66979027       3.58021164      -6.49683762
S       -2.09736443       3.78279877      -4.83488464
H       -0.74586105       3.63804245      -7.42625046
H       -1.90791512       3.09399414      -8.53333282
H       -1.31729317       2.05654144      -7.11674309
H       -3.56684303       2.92477417      -6.53333855
H       -3.14930153       4.55141449      -6.94548988
H       -2.38044930       2.65867233      -4.43688202
9
Properties=species:S:1:pos:R:3 name=EtSH mapped_smiles="[C:1]([C:2]([S:3][H:9])([H:7])[H:8])([H:4])([H:5])[H:6]" pbc="F F F"
C        0.00000000       0.00000000       0.00000000
C        0.35744476       1.45519257       0.41631699
S        2.17980194       1.78526306       0.28522491
H        0.44999313      -0.59992981       0.85689926
H        0.47155380      -0.34922028      -0.91876602
H       -1.06082153      -0.10861206      -0.05747604
H        0.06836319       1.61364746       1.44530106
H       -0.23213577       2.21253967      -0.11659622
H        2.30987930       2.75119019       1.18972778
9
Properties=species:S:1:pos:R:3 name=EtSH mapped_smiles="[C:1]([C:2]([S:3][H:9])([H:7])[H:8])([H:4])([H:5])[H:6]" pbc="F F F"
C       -1.19420433      -1.34180641      -5.76330185
C       -2.55257225      -0.82000160      -6.19683838
S       -3.03357315       0.68378258      -5.49262238
H       -0.80071068      -2.21240044      -6.35145569
H       -1.27342987      -1.64220047      -4.71015930
H       -0.37656975      -0.63351631      -5.72850037
H       -3.37937927      -1.50308037      -6.06985855
H       -2.52849770      -0.55954552      -7.27837753
H       -3.45038795       1.17770958      -6.60429001
9
Properties=species:S:1:pos:R:3 name=EtSH mapped_smiles="[C:1]([C:2]([S:3][H:9])([H:7])[H:8])([H:4])([H:5])[H:6]" pbc="F F F"
C        0.00000000       0.00000000       0.00000000
C        0.09807968       1.24230957       0.98309708
S        1.85948563       1.82880020       1.56513214
H        0.32211304      -0.90488052       0.54471207
H        0.64355469       0.14103317      -0.84040070
H       -0.98156357      -0.10764313      -0.38328552
H       -0.53669739       1.02904892       1.84264374
H       -0.39180374       2.08779526       0.52725983
H        2.44287109       1.83214569       0.43752289
9
Properties=species:S:1:pos:R:3 name=EtSH mapped_smiles="[C:1]([C:2]([S:3][H:9])([H:7])[H:8])([H:4])([H:5])[H:6]" pbc="F F F"
C        0.00000000       0.00000000       0.00000000
C       -0.76304817      -0.60437393      -1.14428711
S       -2.11954308       0.28099442      -1.74607086
H       -0.63930130       0.25854874       0.86252594
H        0.40798187       0.91646576      -0.35297775
H        0.85947037      -0.61510468       0.36104584
H       -1.13738251      -1.53757095      -0.91197968
H       -0.03003693      -0.69703674      -1.92264557
H       -1.37266922       1.33095169      -2.10661316
9
Properties=species:S:1:pos:R:3 name=EtSH mapped_smiles="[C:1]([C:2]([S:3][H:9])([H:7])[H:8])([H:4])([H:5])[H:6]" pbc="F F F"
C        0.00000000       0.00000000       0.00000000
C        1.01014709       0.91266441      -0.69117737
S        1.71947479       0.21826363      -2.22828674
H        0.60407257      -0.89115143       0.29305649
H       -0.77540207      -0.38063049      -0.67335129
H       -0.58980942       0.37955093       0.84381104
H        1.82041931       1.14365959      -0.06940079
H        0.57937241       1.87550735      -0.79560089
H        0.61808014       0.33222580      -2.82693100
9
Properties=species:S:1:pos:R:3 name=EtSH mapped_smiles="[C:1]([C:2]([S:3][H:9])([H:7])[H:8])([H:4])([H:5])[H:6]" pbc="F F F"
C        0.00000000       0.00000000       0.00000000
C        1.24266624       0.43952942       0.71693802
S        0.96757317       1.99055481       1.59254837
H       -0.39867592       0.83601379      -0.53474426
H       -0.68788528      -0.54266357       0.68913651
H        0.31805420      -0.70787811      -0.76310349
H        2.00415993       0.69326019      -0.00615692
H        1.67731667      -0.35436249       1.31903076
H        0.05455780       1.59504700       2.34606934
9
Properties=species:S:1:pos:R:3 name=EtSH mapped_smiles="[C:1]([C:2]([S:3][H:9])([H:7])[H:8])([H:4])([H:5])[H:6]" pbc="F F F"
C        2.80309105      -2.83120918       2.67910004
C        1.35573769      -3.37652969       2.68476105
S        0.86794472      -4.22075653       4.27700424
H        2.93845749      -2.12004852       3.49770737
H        2.83975792      -2.22687149       1.79346848
H        3.59969521      -3.54682732       2.71982193
H        1.26410103      -4.15373421       1.90163803
H        0.67525673      -2.52906799       2.54942703
H        1.93622971      -4.78655815       4.59482193
9
Properties=species:S:1:pos:R:3 name=EtSH mapped_smiles="[C:1]([C:2]([S:3][H:9])([H:7])[H:8])([H:4])([H:5])[H:6]" pbc="F F F"
C        0.00000000       0.00000000       0.00000000
C       -1.32830620      -0.31431580       0.74567604
S       -1.51670265      -2.01804352       1.46236610
H       -0.09931946       0.97645569      -0.50449181
H        0.18474197      -0.65017700      -0.80585480
H        0.90739632       0.09160614       0.63877678
H       -2.21322823      -0.12155914       0.13050652
H       -1.39321518       0.45673370       1.60523033
H       -0.29516411      -2.27493286       1.64753914
9
Properties=species:S:1:pos:R:3 name=EtSH mapped_smiles="[C:1]([C:2]([S:3][H:9])([H:7])[H:8])([H:4])([H:5])[H:6]" pbc="F F F"
C        0.93778229       5.05843735       1.98812103
C        2.28651047       4.76946640       2.66259003
S        3.10981750       3.20766068       1.94787407
H        0.34399414       4.14122772       1.95461273
H        1.09183121       5.44775009       0.93474770
H        0.37902832       5.81230545       2.57287979
H        2.17257690       4.68831635       3.74140358
H        2.85565948       5.65503311       2.41322327
H        2.59860611       2.35955429       2.77750587
9
Properties=species:S:1:pos:R:3 name=EtSH mapped_smiles="[C:1]([C:2]([S:3][H:9])([H:7])[H:8])([H:4])([H:5])[H:6]" pbc="F F F"
C        1.34752464       3.47630692       0.64945602
C        0.11444283       4.18559647      -0.05219650
S       -0.05626869       5.89838791       0.33181381
H        2.28095818       3.86806870       0.27074051
H        1.42389488       2.41536713       0.39983749
H        1.34108925       3.60949326       1.75474930
H       -0.82471657       3.64149857       0.17169571
H        0.27133751       4.05551529      -1.17246628
H        0.95046425       6.27131653      -0.33160019
9
Properties=species:S:1:pos:R:3 name=EtSH mapped_smiles="[C:1]([C:2]([S:3][H:9])([H:7])[H:8])([H:4])([H:5])[H:6]" pbc="F F F"
C       -2.35902405      -5.26938057       0.13942146
C       -2.41921616      -6.17920113      -1.07395363
S       -4.15870285      -6.57909584      -1.40668869
H       -3.02710533      -5.71818733       0.92624283
H       -2.84073639      -4.29178047      -0.06219292
H       -1.33152962      -5.14163399       0.45095062
H       -1.94397545      -7.08741188      -0.80303001
H       -1.96478462      -5.75453377      -2.01049805
H       -3.94915390      -7.02761269      -2.64866638
9
Properties=species:S:1:pos:R:3 name=EtSH mapped_smiles="[C:1]([C:2]([S:3][H:9])([H:7])[H:8])([H:4])([H:5])[H:6]" pbc="F F F"
C        3.75951767       6.79622650       1.47370911
C        3.75910187       6.45614243       0.00867271
S        1.98641968       5.86867523      -0.37072182
H        4.71427155       7.17711449       1.76844215
H        3.75600815       5.91056442       2.01540184
H        2.89108276       7.46433830       1.82661819
H        4.52641678       5.77154922      -0.31443214
H        3.94497299       7.42995262      -0.54062843
H        1.35687256       7.01976585      -0.34012032
9
Properties=species:S:1:pos:R:3 name=EtSH mapped_smiles="[C:1]([C:2]([S:3][H:9])([H:7])[H:8])([H:4])([H:5])[H:6]" pbc="F F F"
C        0.00000000       0.00000000       0.00000000
C       -0.34840393       1.14744568       0.93010521
S       -0.41820717       2.71367645       0.13953400
H        0.84313774       0.13615417      -0.68144226
H       -0.91407776      -0.25782013      -0.62885094
H        0.30929947      -0.88156128       0.57556915
H        0.48215866       1.27306366       1.64100456
H       -1.21810150       0.90933228       1.51005936
H       -1.42996597       2.35047150      -0.59053040
9
Properties=species:S:1:pos:R:3 name=EtSH mapped_smiles="[C:1]([C:2]([S:3][H:9])([H:7])[H:8])([H:4])([H:5])[H:6]" pbc="F F F"
C       -1.76941681      -2.46906281      -2.45582771
C       -3.10917854      -1.83565331      -2.92092705
S       -3.05367851       0.00830269      -2.80623817
H       -1.75678062      -3.52697563      -2.53671455
H       -1.64370918      -2.20344734      -1.38810539
H       -0.89220810      -2.13242912      -2.97047424
H       -3.88524437      -2.25208855      -2.30550575
H       -3.29638290      -2.21679306      -3.90041924
H       -3.19666481       0.22473907      -1.61193275
