7
Properties=species:S:1:pos:R:3 name=NOM mapped_smiles="[C:1]([N+:2](=[O:3])[O-:4])([H:5])([H:6])[H:7]" pbc="F F F"
C        4.30665970       2.99687195       2.44115448
N        3.39509010       2.38334656       1.50374985
O        2.36164093       1.80037308       2.03708649
O        3.64083290       2.44417191       0.21929932
H        3.78913498       3.28981781       3.32955933
H        4.65005684       3.80390930       1.90348434
H        5.12530518       2.30937576       2.57589340
7
Properties=species:S:1:pos:R:3 name=NOM mapped_smiles="[C:1]([N+:2](=[O:3])[O-:4])([H:5])([H:6])[H:7]" pbc="F F F"
C        9.36058617       0.52990913      -5.06128502
N        8.56673241       1.31520462      -3.96835899
O        8.94170570       2.49462891      -3.68994713
O        7.63759804       0.64233398      -3.48481560
H        8.99058723       0.91390800      -6.02165031
H        9.14784050      -0.53420830      -4.83554649
H       10.43955040       0.79506111      -4.94322777
7
Properties=species:S:1:pos:R:3 name=NOM mapped_smiles="[C:1]([N+:2](=[O:3])[O-:4])([H:5])([H:6])[H:7]" pbc="F F F"
C        0.00000000       0.00000000       0.00000000
N       -0.14056396      -0.91242599       1.18190956
O        0.11879539      -2.15150452       1.04306793
O       -0.61470413      -0.40320969       2.16626167
H       -0.99307632       0.11667252      -0.47963333
H        0.75345802      -0.44968414      -0.63689041
H        0.27935600       0.97578049       0.42690086
7
Properties=species:S:1:pos:R:3 name=NOM mapped_smiles="[C:1]([N+:2](=[O:3])[O-:4])([H:5])([H:6])[H:7]" pbc="F F F"
C        0.00000000       0.00000000       0.00000000
N        0.03968048      -1.31022644      -0.42384720
O        1.04202080      -1.60562897      -1.05022430
O       -0.99830055      -1.97894287      -0.34318542
H        0.93110466       0.47778320      -0.23246384
H       -0.10848808      -0.13751602       1.08785248
H       -0.81345177       0.58618164      -0.41679001
7
Properties=species:S:1:pos:R:3 name=NOM mapped_smiles="[C:1]([N+:2](=[O:3])[O-:4])([H:5])([H:6])[H:7]" pbc="F F F"
C       -1.22774506      -3.43220139       4.23891830
N       -0.27088737      -2.32393837       4.46919632
O        0.88221741      -2.62767601       4.50862122
O       -0.78041649      -1.20794868       4.64574814
H       -1.47228241      -3.94586563       5.11180496
H       -0.89607048      -4.07355499       3.44824600
H       -2.10588646      -2.91143036       3.82549286
7
Properties=species:S:1:pos:R:3 name=NOM mapped_smiles="[C:1]([N+:2](=[O:3])[O-:4])([H:5])([H:6])[H:7]" pbc="F F F"
C       -5.76388359       1.86793709       0.11965370
N       -4.31509209       2.20116234       0.19170570
O       -3.92178917       3.06242180       0.95603371
O       -3.60225868       1.49783134      -0.53620529
H       -5.86550713       0.82030487      -0.04256630
H       -6.09850883       2.50533485      -0.67706108
H       -6.24754906       2.15577316       1.06863594
7
Properties=species:S:1:pos:R:3 name=NOM mapped_smiles="[C:1]([N+:2](=[O:3])[O-:4])([H:5])([H:6])[H:7]" pbc="F F F"
C        6.04101181      -6.40682983      -0.51770020
N        6.06472397      -6.12580490       0.89757538
O        6.65490913      -6.96581650       1.58101654
O        5.64008331      -4.98456573       1.29309082
H        5.51814270      -7.26018524      -0.62065887
H        7.10626411      -6.34390640      -0.82131195
H        5.55309296      -5.57993317      -1.00651550
7
Properties=species:S:1:pos:R:3 name=NOM mapped_smiles="[C:1]([N+:2](=[O:3])[O-:4])([H:5])([H:6])[H:7]" pbc="F F F"
C        0.00000000       0.00000000       0.00000000
N       -0.22434807      -1.14580345      -0.89527321
O        0.50218010      -1.18462563      -1.88948441
O       -1.06163979      -2.04263687      -0.66103363
H        0.09332466       0.88473701      -0.67084694
H        0.92187691      -0.05816460       0.61888123
H       -0.84135056       0.11263466       0.58122253
7
Properties=species:S:1:pos:R:3 name=NOM mapped_smiles="[C:1]([N+:2](=[O:3])[O-:4])([H:5])([H:6])[H:7]" pbc="F F F"
C        0.34058762      -6.76208496      -3.46777153
N       -0.84612656      -7.59293365      -3.89051628
O       -0.68979263      -8.85073090      -3.91178703
O       -1.95045090      -7.04906845      -4.20629692
H        1.27035522      -7.20745850      -3.92682457
H        0.36215591      -6.73867416      -2.37005424
H        0.23416138      -5.70310593      -3.61347008
7
Properties=species:S:1:pos:R:3 name=NOM mapped_smiles="[C:1]([N+:2](=[O:3])[O-:4])([H:5])([H:6])[H:7]" pbc="F F F"
C       -3.37736320      -1.80106735       1.28814316
N       -4.72073936      -1.14315987       1.16338730
O       -5.68542862      -1.88064194       1.48354721
O       -4.71619987       0.02541161       0.85239029
H       -3.13338470      -2.06422424       0.22964096
H       -3.44874001      -2.67898941       1.87889481
H       -2.66548538      -1.08782959       1.68935776
7
Properties=species:S:1:pos:R:3 name=NOM mapped_smiles="[C:1]([N+:2](=[O:3])[O-:4])([H:5])([H:6])[H:7]" pbc="F F F"
C       -3.52841568       3.14385605       1.60712433
N       -2.69397354       1.97552872       1.98572540
O       -3.26933670       0.91911125       2.26982880
O       -1.49493408       2.17468834       1.86959839
H       -4.52431488       2.81145668       1.31486511
H       -3.10610962       3.80792236       0.84173584
H       -3.70622253       3.83699608       2.45278168
7
Properties=species:S:1:pos:R:3 name=NOM mapped_smiles="[C:1]([N+:2](=[O:3])[O-:4])([H:5])([H:6])[H:7]" pbc="F F F"
C        0.00000000       0.00000000       0.00000000
N        1.23688889       0.51955795      -0.62607384
O        1.46438408       1.74267769      -0.50439835
O        1.89245605      -0.26828003      -1.32611656
H       -0.68634987       0.01202965      -0.86108208
H       -0.31118202       0.71358681       0.70831108
H        0.09290504      -1.03002930       0.41528130
7
Properties=species:S:1:pos:R:3 name=NOM mapped_smiles="[C:1]([N+:2](=[O:3])[O-:4])([H:5])([H:6])[H:7]" pbc="F F F"
C       -6.12046242       3.36056137       4.30919266
N       -5.25184059       4.26991653       3.48765564
O       -5.74036407       5.11291122       2.71781158
O       -4.02038765       3.96830368       3.55085754
H       -6.05952454       3.66703415       5.35092545
H       -5.75482559       2.30738449       4.14620972
H       -7.11936378       3.53030014       3.96810150
7
Properties=species:S:1:pos:R:3 name=NOM mapped_smiles="[C:1]([N+:2](=[O:3])[O-:4])([H:5])([H:6])[H:7]" pbc="F F F"
C        4.21322060      -3.83795166       1.62401199
N        3.97790718      -3.03023148       0.47043610
O        5.06276131      -2.76391220      -0.15871429
O        2.82239342      -2.62851334       0.26321411
H        5.26234627      -3.83468628       1.95819473
H        4.00251961      -4.81307602       1.23917007
H        3.54912949      -3.56447220       2.37897110
7
Properties=species:S:1:pos:R:3 name=NOM mapped_smiles="[C:1]([N+:2](=[O:3])[O-:4])([H:5])([H:6])[H:7]" pbc="F F F"
C        3.18822670      -7.92562675      -2.67483521
N        3.36161232      -8.88057899      -1.69079971
O        2.68857193      -8.76577759      -0.71072388
O        4.20393944      -9.70211601      -1.91237640
H        2.67942810      -8.36064148      -3.49562836
H        4.15636253      -7.61729240      -2.98221588
H        2.54792595      -7.10968399      -2.30533600
7
Properties=species:S:1:pos:R:3 name=NOM mapped_smiles="[C:1]([N+:2](=[O:3])[O-:4])([H:5])([H:6])[H:7]" pbc="F F F"
C        2.63384438      -7.10948181      -1.78735733
N        1.84996223      -8.01518250      -2.48928833
O        0.85579872      -7.56254578      -3.16290665
O        2.20031166      -9.17754364      -2.46471405
H        2.14093208      -6.11665344      -1.69007492
H        3.51785469      -6.96141052      -2.41623306
H        2.85074043      -7.57816315      -0.84125137
7
Properties=species:S:1:pos:R:3 name=NOM mapped_smiles="[C:1]([N+:2](=[O:3])[O-:4])([H:5])([H:6])[H:7]" pbc="F F F"
C        0.21397400       0.61462784       4.24684715
N        0.72627258       1.62285995       3.21286011
O        1.90564728       1.74575806       2.87115669
O       -0.16378784       2.35031891       2.78222847
H       -0.81567764       0.47596359       4.02457619
H        0.41959381       0.99673462       5.22395706
H        0.71123123      -0.29953003       4.23978424
7
Properties=species:S:1:pos:R:3 name=NOM mapped_smiles="[C:1]([N+:2](=[O:3])[O-:4])([H:5])([H:6])[H:7]" pbc="F F F"
C       -3.93946075      -3.34786224       2.56581497
N       -4.07588005      -3.67594910       1.11819077
O       -4.40790367      -2.81304932       0.30097580
O       -3.97957993      -4.84486771       0.76314163
H       -3.57358170      -2.32909393       2.57587051
H       -3.35608482      -4.02869034       3.12769318
H       -4.87897301      -3.35556030       3.05992126
7
Properties=species:S:1:pos:R:3 name=NOM mapped_smiles="[C:1]([N+:2](=[O:3])[O-:4])([H:5])([H:6])[H:7]" pbc="F F F"
C        0.00000000       0.00000000       0.00000000
N        1.17206573       0.85292625       0.42765808
O        2.31434631       0.51406288       0.10217285
O        0.85178375       1.76470947       1.21639252
H       -0.18457794      -0.87012291       0.71424866
H        0.37909698      -0.46870422      -0.89325714
H       -0.95209885       0.49467278      -0.07112885
7
Properties=species:S:1:pos:R:3 name=NOM mapped_smiles="[C:1]([N+:2](=[O:3])[O-:4])([H:5])([H:6])[H:7]" pbc="F F F"
C       -4.48725319       7.40367699      -0.85353279
N       -3.63112831       7.85842705      -1.95303154
O       -2.63148689       7.13509178      -2.12023735
O       -4.08895302       8.86753654      -2.53226280
H       -5.03592110       6.63098145      -1.34070396
H       -5.21006966       8.19649315      -0.52733421
H       -3.85734749       7.01998711      -0.06019020
7
Properties=species:S:1:pos:R:3 name=NOM mapped_smiles="[C:1]([N+:2](=[O:3])[O-:4])([H:5])([H:6])[H:7]" pbc="F F F"
C        0.00000000       0.00000000       0.00000000
N       -0.99035072       0.92478180      -0.55293655
O       -1.07551575       2.05655289       0.02552605
O       -1.71368599       0.49326706      -1.45199776
H       -0.32665253      -1.03512573      -0.08458900
H        0.14328003       0.24185181       1.04420662
H        0.96273422       0.16225052      -0.54164314
7
Properties=species:S:1:pos:R:3 name=NOM mapped_smiles="[C:1]([N+:2](=[O:3])[O-:4])([H:5])([H:6])[H:7]" pbc="F F F"
C        0.00000000       0.00000000       0.00000000
N        0.54716110      -0.47886658      -1.26481628
O        0.39833450       0.22833824      -2.29095840
O        1.14179611      -1.54732323      -1.25292587
H        0.57468033       0.90133095       0.23487091
H        0.19943619      -0.78804398       0.67535019
H       -1.02698898       0.28986931      -0.02924728
7
Properties=species:S:1:pos:R:3 name=NOM mapped_smiles="[C:1]([N+:2](=[O:3])[O-:4])([H:5])([H:6])[H:7]" pbc="F F F"
C        0.08151627       0.82305908       6.22199631
N        0.21566010      -0.56955338       5.82869339
O        1.03108597      -1.26312637       6.43471718
O       -0.61933136      -0.90252304       4.96817589
H       -0.71044540       0.90398026       6.97088051
H       -0.26498032       1.34616470       5.39020920
H        0.99832153       1.05908585       6.68407440
7
Properties=species:S:1:pos:R:3 name=NOM mapped_smiles="[C:1]([N+:2](=[O:3])[O-:4])([H:5])([H:6])[H:7]" pbc="F F F"
C        5.96443558      -5.82770348       4.78706932
N        7.36967278      -5.47022820       4.92579079
O        8.22939873      -6.19105339       4.41300774
O        7.61344719      -4.40166283       5.54900932
H        5.42369461      -5.31617546       5.58104134
H        5.84963608      -6.86857414       4.81664085
H        5.61669922      -5.41544151       3.85081291
7
Properties=species:S:1:pos:R:3 name=NOM mapped_smiles="[C:1]([N+:2](=[O:3])[O-:4])([H:5])([H:6])[H:7]" pbc="F F F"
C        0.16070557      -2.85851097       9.08969688
N        1.49044800      -2.21762466       8.82539940
O        1.68387604      -1.09260178       9.29876518
O        2.27719879      -2.87136650       8.06130791
H       -0.36304855      -2.87184715       8.16705894
H       -0.43155289      -2.38044548       9.90117455
H        0.35123825      -3.90704918       9.33964348
7
Properties=species:S:1:pos:R:3 name=NOM mapped_smiles="[C:1]([N+:2](=[O:3])[O-:4])([H:5])([H:6])[H:7]" pbc="F F F"
C        0.00000000       0.00000000       0.00000000
N       -0.41755104       0.80004120      -1.06826019
O       -0.73476410       1.97677994      -0.74609947
O       -0.62541389       0.34609222      -2.23599052
H        0.57558060      -0.80151749      -0.39768600
H       -0.88014793      -0.41068268       0.45360756
H        0.45958138       0.58160019       0.80075645
7
Properties=species:S:1:pos:R:3 name=NOM mapped_smiles="[C:1]([N+:2](=[O:3])[O-:4])([H:5])([H:6])[H:7]" pbc="F F F"
C       -6.59723282      -5.63407516       0.45743561
N       -7.80411148      -5.33911514       1.19542885
O       -8.44443893      -4.30942726       0.95442390
O       -8.11066437      -6.18845177       2.02784920
H       -6.43115234      -4.81147385      -0.23827171
H       -6.72996521      -6.53000832      -0.13598251
H       -5.80923843      -5.62595367       1.26119423
7
Properties=species:S:1:pos:R:3 name=NOM mapped_smiles="[C:1]([N+:2](=[O:3])[O-:4])([H:5])([H:6])[H:7]" pbc="F F F"
C        0.00000000       0.00000000       0.00000000
N       -0.91451645       0.03047180      -1.08532333
O       -1.63731766       1.01661682      -1.05018616
O       -0.92328262      -0.85887337      -2.01776123
H       -0.50611496       0.01475525       0.89318085
H        0.65338135       0.87855911       0.01813126
H        0.56866074      -0.96995354      -0.12536621
7
Properties=species:S:1:pos:R:3 name=NOM mapped_smiles="[C:1]([N+:2](=[O:3])[O-:4])([H:5])([H:6])[H:7]" pbc="F F F"
C       -1.43907166      -2.64218330       7.41714287
N       -0.07260895      -2.83883858       6.88567734
O        0.82192230      -2.71778297       7.73992729
O        0.01454163      -3.22920036       5.72521591
H       -2.11577606      -2.37184906       6.69408798
H       -1.42434311      -1.90284538       8.18877983
H       -1.73342896      -3.59849739       7.86906242
7
Properties=species:S:1:pos:R:3 name=NOM mapped_smiles="[C:1]([N+:2](=[O:3])[O-:4])([H:5])([H:6])[H:7]" pbc="F F F"
C        4.70673370      -2.47341156       1.57312775
N        3.51509094      -1.97791290       2.26584244
O        2.81862640      -2.76817703       2.90557480
O        3.30841827      -0.79170609       2.29090881
H        5.47011566      -1.70875168       1.29375076
H        4.28303528      -2.96259308       0.69509125
H        5.05883026      -3.32199097       2.13015366
7
Properties=species:S:1:pos:R:3 name=NOM mapped_smiles="[C:1]([N+:2](=[O:3])[O-:4])([H:5])([H:6])[H:7]" pbc="F F F"
C       -2.14478302      -3.22448349       0.62307739
N       -3.30268860      -2.45546532       0.52869797
O       -3.25306320      -1.42402458      -0.22225571
O       -4.38067245      -2.87916183       1.05598068
H       -2.25537109      -3.99594498      -0.16190720
H       -2.21814728      -3.65264130       1.63534927
H       -1.29769135      -2.57843971       0.44749832
7
Properties=species:S:1:pos:R:3 name=NOM mapped_smiles="[C:1]([N+:2](=[O:3])[O-:4])([H:5])([H:6])[H:7]" pbc="F F F"
C       -1.01604843      -3.24247742      -1.69604111
N       -0.95288277      -4.22698212      -2.67531204
O       -1.86383629      -4.92834473      -3.01868439
O        0.21568298      -4.33474731      -3.14783478
H       -1.47599983      -3.68153381      -0.79116058
H       -1.68643570      -2.46070862      -2.10527039
H        0.01720619      -2.79376984      -1.60932922
7
Properties=species:S:1:pos:R:3 name=NOM mapped_smiles="[C:1]([N+:2](=[O:3])[O-:4])([H:5])([H:6])[H:7]" pbc="F F F"
C        5.60438919      -0.52312088       0.06153107
N        4.33375168       0.04061508      -0.36118698
O        4.22430611       1.17885971      -0.67436218
O        3.36919022      -0.74788094      -0.28614426
H        5.80490875      -1.48989296      -0.37094498
H        5.50967216      -0.41967583       1.15757751
H        6.34753227       0.22834015      -0.20519257
7
Properties=species:S:1:pos:R:3 name=NOM mapped_smiles="[C:1]([N+:2](=[O:3])[O-:4])([H:5])([H:6])[H:7]" pbc="F F F"
C        7.42107201      -2.84608459      -2.72767448
N        6.20957756      -2.01339531      -2.96765327
O        6.17680550      -0.96149063      -2.33716393
O        5.36096191      -2.34356880      -3.79969978
H        7.26649666      -3.42149162      -1.79691887
H        8.26451302      -2.13729286      -2.56638527
H        7.54765511      -3.59856606      -3.50724220
7
Properties=species:S:1:pos:R:3 name=NOM mapped_smiles="[C:1]([N+:2](=[O:3])[O-:4])([H:5])([H:6])[H:7]" pbc="F F F"
C        0.00000000       0.00000000       0.00000000
N       -0.13954926       0.98894119      -1.11764526
O        0.50074387       2.04721069      -0.89424133
O       -0.90282440       0.71074677      -2.02973175
H       -0.94086456      -0.53969193       0.12041473
H        0.29328156       0.55705261       0.87140656
H        0.72634888      -0.73538971      -0.31969452
7
Properties=species:S:1:pos:R:3 name=NOM mapped_smiles="[C:1]([N+:2](=[O:3])[O-:4])([H:5])([H:6])[H:7]" pbc="F F F"
C        0.00000000       0.00000000       0.00000000
N        0.68536568      -1.32238197       0.21100235
O        1.92412949      -1.37912178       0.33491135
O       -0.06883812      -2.31816673       0.23780060
H        0.69965553       0.64711571      -0.48317337
H       -0.16604424       0.29928780       0.99892807
H       -0.94936943      -0.21639061      -0.46623993
7
Properties=species:S:1:pos:R:3 name=NOM mapped_smiles="[C:1]([N+:2](=[O:3])[O-:4])([H:5])([H:6])[H:7]" pbc="F F F"
C        0.00000000       0.00000000       0.00000000
N       -0.64020348      -0.61968994      -1.10326195
O       -1.89117813      -0.34555054      -1.29367447
O        0.04173660      -1.22708893      -1.90358543
H       -0.56458282      -0.14776611       0.91226959
H       -0.01169205       1.10381317      -0.24439049
H        0.98403549      -0.43887901       0.11011314
7
Properties=species:S:1:pos:R:3 name=NOM mapped_smiles="[C:1]([N+:2](=[O:3])[O-:4])([H:5])([H:6])[H:7]" pbc="F F F"
C        2.76699066       2.86800003       1.33981705
N        1.64909363       2.39529419       2.01662064
O        1.97655106       1.67366791       2.95409966
O        0.50288391       2.72696304       1.78168106
H        2.44895554       2.94089127       0.28300476
H        3.58472824       2.18487930       1.41468811
H        3.03587341       3.84552383       1.77848434
7
Properties=species:S:1:pos:R:3 name=NOM mapped_smiles="[C:1]([N+:2](=[O:3])[O-:4])([H:5])([H:6])[H:7]" pbc="F F F"
C        0.61234856      -3.85276794      -3.25113678
N       -0.05343246      -2.52930450      -3.24571228
O       -0.89588928      -2.32732391      -4.11781693
O        0.22388077      -1.79631805      -2.29084778
H        1.40298271      -3.76708794      -3.94246292
H       -0.10798073      -4.57773972      -3.54355621
H        0.95256615      -4.09644508      -2.19365692
7
Properties=species:S:1:pos:R:3 name=NOM mapped_smiles="[C:1]([N+:2](=[O:3])[O-:4])([H:5])([H:6])[H:7]" pbc="F F F"
C        0.00000000       0.00000000       0.00000000
N       -0.65879059       0.48781586       1.19051361
O       -1.07693863       1.65984344       1.13264847
O       -0.83827972      -0.38896942       2.04801941
H        0.55318832       0.86603546      -0.40198517
H       -0.77016830      -0.17985535      -0.65881348
H        0.54561615      -0.93753433       0.06270218
