$molecule
0 1
  C    -2.41482021    2.07333233    7.38717320
  C    -3.46585514    1.28097775    6.79721882
  C    -3.65420963   -0.13239620    7.39251377
  O    -4.24691631    1.74723866    5.93353703
  H    -2.42581417    3.06107952    6.87511494
  H    -1.36564686    1.63762142    7.23963978
  H    -2.62875797    2.28657963    8.40969135
  H    -2.77258541   -0.66325520    7.54037525
  H    -4.41171314   -0.69036053    6.80679752
  H    -4.12053158   -0.04219768    8.32730534
  C     0.44456913    4.09269863    4.40452435
  C     1.15114071    5.17176205    3.84747173
  N     1.83269360    6.11310726    3.36667301
  H    -0.54245899    3.98219448    3.82742359
  H     0.99726727    3.12960964    4.26489117
  H     0.18813755    4.27244717    5.48044445
  C     0.57908299    2.06943180    1.25970699
  C    -0.61515377    1.64606716    0.75539257
  C    -1.39073322    2.56257298   -0.03032444
  C    -0.85691784    3.87496998   -0.16166637
  C     0.33407452    4.25610020    0.38979389
  C     1.11614277    3.32634022    1.00317623
  H     1.17472508    1.44936611    1.87671330
  H    -0.93757198    0.57818081    0.82679798
  H    -2.30099438    2.19561817   -0.51918362
  H    -1.50640057    4.61884167   -0.71894978
  H     0.64286663    5.29231121    0.31901981
  H     2.02725651    3.61655476    1.34212544
  C     0.59462498   -2.02644962    5.18686535
  C     0.94199894   -2.21115726    3.82756855
  O     0.95604275   -3.29083103    3.22253849
  O     1.26582859   -1.09098667    3.18107082
  H    -0.42295887   -1.85921329    5.25706913
  H     1.11801098   -1.11349338    5.59425404
  H     0.99768398   -2.86900181    5.77722599
  H     1.67933033   -1.34002537    2.28846981
$end

    $rem
    JOBTYPE                     FORCE
    METHOD                      B3LYP
    BASIS                       def2-SVPD
    XC_GRID                     000099000590
    NL_GRID                     000050000194
    MAX_SCF_CYCLES              100
    SCF_CONVERGENCE             8
    THRESH                      13
    BASIS_LIN_DEP_THRESH        13
    INCDFT_DENDIFF_THRESH       14
    INCDFT_GRIDDIFF_THRESH      14
    MEM_STATIC                  8000
    MEM_TOTAL                   80000
    SYMMETRY                    FALSE
    SYM_IGNORE                  TRUE
    !LOWDIN_POPULATION           TRUE
    CHELPG                      TRUE
    !ESP_CHARGES                 1
    RESP_CHARGES                1
    !HIRSHFELD                   TRUE
    !CM5                         TRUE
    DFT_D D3_BJ
AUX_BASIS                   RIJK-def2-qzvpp
    occ_ri_k                    TRUE
    ri_k_grad                   TRUE
        $end

$archive
enable_archive = True !Turns on generation of Archive
$end

