10
Properties=species:S:1:pos:R:3 name=EC mapped_smiles="[C:1]1([H:7])([H:8])[C:2]([H:9])([H:10])[O:3][C:4](=[O:5])[O:6]1" pbc="F F F"
C        0.00000000       0.00000000       0.00000000
C        1.02923584      -0.27368546      -1.13729858
O        2.00226974       0.76606941      -0.84225845
C        1.94914246       1.13123512       0.48827744
O        2.77963638       1.71343422       1.12288094
O        0.82934189       0.64725304       1.04315567
H       -0.51778793      -0.89769173       0.38784409
H       -0.80500412       0.80607224      -0.20295525
H        0.60639954      -0.09436798      -2.15098000
H        1.52528763      -1.27158928      -0.99019051
10
Properties=species:S:1:pos:R:3 name=EC mapped_smiles="[C:1]1([H:7])([H:8])[C:2]([H:9])([H:10])[O:3][C:4](=[O:5])[O:6]1" pbc="F F F"
C        0.00000000       0.00000000       0.00000000
C       -1.18671036       0.05734253      -0.97067642
O       -0.76505470      -0.67621803      -2.19869804
C        0.58710480      -0.73503304      -2.13131523
O        1.31661415      -0.91090393      -3.06236267
O        1.03010750      -0.31623459      -0.86674118
H       -0.12713623      -0.85194778       0.74205208
H        0.13327408       0.91613197       0.63854980
H       -1.43346405       1.05230713      -1.29682922
H       -2.11475754      -0.35232353      -0.59414864
10
Properties=species:S:1:pos:R:3 name=EC mapped_smiles="[C:1]1([H:7])([H:8])[C:2]([H:9])([H:10])[O:3][C:4](=[O:5])[O:6]1" pbc="F F F"
C        7.24403763       1.22428322      -1.19251060
C        8.65755081       0.70698547      -1.11380196
O        9.47904205       1.88688469      -1.19291878
C        8.83078384       2.92609024      -1.68576241
O        9.32795334       3.97331810      -2.02730179
O        7.49378967       2.59149933      -1.84204102
H        6.71299553       1.38559532      -0.24723816
H        6.47575569       0.72425842      -1.87895203
H        8.99914551       0.09682274      -1.97601700
H        8.97490311       0.31440735      -0.14693451
10
Properties=species:S:1:pos:R:3 name=EC mapped_smiles="[C:1]1([H:7])([H:8])[C:2]([H:9])([H:10])[O:3][C:4](=[O:5])[O:6]1" pbc="F F F"
C       -5.36047363      -0.43156433       0.59360123
C       -5.19818878       0.84983444       1.48454285
O       -3.75894547       1.14206314       1.41439056
C       -3.11916161       0.11111450       0.77320862
O       -1.93844986       0.14662170       0.56247330
O       -3.94037056      -0.85313797       0.31181717
H       -5.91053391      -0.19689941      -0.35183716
H       -5.96816254      -1.25202942       1.00836563
H       -5.39067650       0.82022476       2.55386734
H       -5.73792839       1.73563004       1.09218979
10
Properties=species:S:1:pos:R:3 name=EC mapped_smiles="[C:1]1([H:7])([H:8])[C:2]([H:9])([H:10])[O:3][C:4](=[O:5])[O:6]1" pbc="F F F"
C        4.80030251       1.14628983       7.02265358
C        6.07051659       1.56740570       6.37598038
O        6.45565605       0.53696632       5.42111588
C        5.32275200      -0.02735519       5.04973602
O        5.14502525      -0.77316856       4.15640831
O        4.29975700       0.44282532       5.80604744
H        4.07627296       1.88726425       7.36962128
H        5.10172844       0.46036339       7.78788948
H        6.85601234       1.69205093       7.10580635
H        5.96130943       2.46496201       5.84942627
10
Properties=species:S:1:pos:R:3 name=EC mapped_smiles="[C:1]1([H:7])([H:8])[C:2]([H:9])([H:10])[O:3][C:4](=[O:5])[O:6]1" pbc="F F F"
C        0.00000000       0.00000000       0.00000000
C        1.15489578      -0.37346649      -0.87835121
O        1.10021782      -1.83943176      -1.04476166
C       -0.13431740      -2.27651978      -0.59065437
O       -0.55371475      -3.39108658      -0.57086182
O       -0.83431816      -1.18008041      -0.19606018
H       -0.51637459       0.92644501      -0.30511284
H        0.23787498       0.07619858       1.08209229
H        2.16435242      -0.16759491      -0.51928329
H        1.03049278       0.03791428      -1.92564201
10
Properties=species:S:1:pos:R:3 name=EC mapped_smiles="[C:1]1([H:7])([H:8])[C:2]([H:9])([H:10])[O:3][C:4](=[O:5])[O:6]1" pbc="F F F"
C        0.00000000       0.00000000       0.00000000
C        0.87203979      -0.03241730      -1.27779770
O        0.28823471       1.03863907      -2.07887650
C       -0.35532951       1.91561317      -1.16247177
O       -0.89364243       2.91931534      -1.51751328
O       -0.21410751       1.40184593       0.08327103
H        0.55615997      -0.42150497       0.88362503
H       -0.92429161      -0.53982735      -0.10689926
H        0.90876961      -0.98923302      -1.77424240
H        1.84617996       0.37107849      -1.00872421
10
Properties=species:S:1:pos:R:3 name=EC mapped_smiles="[C:1]1([H:7])([H:8])[C:2]([H:9])([H:10])[O:3][C:4](=[O:5])[O:6]1" pbc="F F F"
C        0.00000000       0.00000000       0.00000000
C        1.35188675      -0.62025452      -0.59182739
O        2.36412048      -0.24005508       0.34178543
C        1.80800629       0.21447372       1.46199417
O        2.42199326       0.62416458       2.39542389
O        0.40897369       0.16778564       1.45056152
H       -0.88577271      -0.69866180      -0.03100967
H       -0.28827286       0.98164368      -0.45629120
H        1.67482758      -0.28600311      -1.56765747
H        1.30972672      -1.72583008      -0.65316391
10
Properties=species:S:1:pos:R:3 name=EC mapped_smiles="[C:1]1([H:7])([H:8])[C:2]([H:9])([H:10])[O:3][C:4](=[O:5])[O:6]1" pbc="F F F"
C        0.00000000       0.00000000       0.00000000
C        1.12190628       0.48111343      -0.69671440
O        2.24693680       0.35256958       0.19270706
C        1.91283417      -0.54093933       1.15979385
O        2.60010910      -1.06554794       1.96169662
O        0.56642532      -0.64432526       1.15032959
H       -0.64750671      -0.71293640      -0.60307503
H       -0.63835526       0.82444382       0.31836510
H        1.02169037       1.53224564      -0.98871613
H        1.33070755      -0.09193420      -1.68927765
10
Properties=species:S:1:pos:R:3 name=EC mapped_smiles="[C:1]1([H:7])([H:8])[C:2]([H:9])([H:10])[O:3][C:4](=[O:5])[O:6]1" pbc="F F F"
C        0.00000000       0.00000000       0.00000000
C        1.20013237       0.98370361       0.29470825
O        1.44358444       1.67328262      -0.88743591
C        0.41903687       1.40825653      -1.79640198
O        0.33527374       1.84513855      -2.90321732
O       -0.49424934       0.60196686      -1.21062851
H       -0.74109459       0.02875900       0.74761200
H        0.26299286      -1.05988884      -0.18532562
H        2.14971161       0.58325768       0.63615036
H        0.92061424       1.75250816       0.96731949
10
Properties=species:S:1:pos:R:3 name=EC mapped_smiles="[C:1]1([H:7])([H:8])[C:2]([H:9])([H:10])[O:3][C:4](=[O:5])[O:6]1" pbc="F F F"
C       -4.55815506      -1.82707977      -0.86853600
C       -3.84158897      -0.55288696      -0.50969887
O       -4.83465004       0.35765076       0.05294800
C       -6.11280823      -0.20496750      -0.04470253
O       -7.20914841       0.28662109       0.06771660
O       -5.93808746      -1.46662521      -0.63961029
H       -4.26912689      -2.80393219      -0.44681549
H       -4.58964729      -1.98256683      -1.97665024
H       -3.54240227      -0.04486084      -1.33971214
H       -3.06671333      -0.70318985       0.25729179
10
Properties=species:S:1:pos:R:3 name=EC mapped_smiles="[C:1]1([H:7])([H:8])[C:2]([H:9])([H:10])[O:3][C:4](=[O:5])[O:6]1" pbc="F F F"
C        0.00000000       0.00000000       0.00000000
C        0.66966248      -1.25722122       0.60807228
O        2.02992630      -1.26938820       0.32221031
C        2.29455185      -0.20121002      -0.53533363
O        3.35511398       0.11100769      -0.94038582
O        1.08742142       0.48027420      -0.85405540
H       -0.11687088       0.72144318       0.77763748
H       -0.93259048      -0.24121094      -0.58495522
H        0.16444778      -2.19663239       0.47587204
H        0.60254669      -1.20257950       1.71463203
10
Properties=species:S:1:pos:R:3 name=EC mapped_smiles="[C:1]1([H:7])([H:8])[C:2]([H:9])([H:10])[O:3][C:4](=[O:5])[O:6]1" pbc="F F F"
C        0.00000000       0.00000000       0.00000000
C        0.85376740       0.11427116      -1.20457077
O        2.15893173       0.19987679      -0.60868263
C        2.09354401       0.48046684       0.67603111
O        3.07015991       0.62617874       1.36081123
O        0.78388977       0.63387871       1.07833099
H       -0.09636116      -1.08907509       0.18293190
H       -1.05563164       0.40916634      -0.03956032
H        0.75490189       1.12054062      -1.71003723
H        0.75499344      -0.71453476      -1.94545937
10
Properties=species:S:1:pos:R:3 name=EC mapped_smiles="[C:1]1([H:7])([H:8])[C:2]([H:9])([H:10])[O:3][C:4](=[O:5])[O:6]1" pbc="F F F"
C        0.00000000       0.00000000       0.00000000
C       -0.50481224      -1.46583939      -0.22204971
O       -1.83109665      -1.26686859       0.22679138
C       -1.97912979      -0.09786797       1.02767563
O       -2.94861412       0.11538696       1.66991997
O       -0.87739754       0.68970871       0.82713509
H        0.06229973       0.52637100      -0.91531372
H        1.03833580       0.09007072       0.37212372
H        0.03139114      -2.19976425       0.44319153
H       -0.60858154      -1.83163452      -1.23999596
10
Properties=species:S:1:pos:R:3 name=EC mapped_smiles="[C:1]1([H:7])([H:8])[C:2]([H:9])([H:10])[O:3][C:4](=[O:5])[O:6]1" pbc="F F F"
C        0.00000000       0.00000000       0.00000000
C       -0.67510605       0.70386505      -1.23097610
O       -1.96134186       0.11309814      -1.27749252
C       -1.95883560      -1.01258469      -0.42405891
O       -2.79357147      -1.86286545      -0.52514267
O       -0.90835190      -1.06327820       0.33399963
H        0.01175690       0.66164017       0.90144348
H        1.01220703      -0.33945847      -0.16330147
H       -0.06354904       0.47784996      -2.12970352
H       -0.77122116       1.78054047      -1.08396912
10
Properties=species:S:1:pos:R:3 name=EC mapped_smiles="[C:1]1([H:7])([H:8])[C:2]([H:9])([H:10])[O:3][C:4](=[O:5])[O:6]1" pbc="F F F"
C        0.00000000       0.00000000       0.00000000
C       -0.17018890       0.47939301       1.47889709
O        0.46245575      -0.56116104       2.22204590
C        1.16226006      -1.31842804       1.39058685
O        1.84451294      -2.23450470       1.73994446
O        0.84542465      -1.02532196       0.07978439
H        0.49365234       0.75634575      -0.66722488
H       -0.94122887      -0.35137939      -0.57053375
H       -1.25298309       0.47978592       1.75416946
H        0.43423843       1.38941956       1.68100357
10
Properties=species:S:1:pos:R:3 name=EC mapped_smiles="[C:1]1([H:7])([H:8])[C:2]([H:9])([H:10])[O:3][C:4](=[O:5])[O:6]1" pbc="F F F"
C        0.00000000       0.00000000       0.00000000
C       -1.03459167      -0.77366257      -0.71173859
O       -1.91757965      -1.21649170       0.30535126
C       -1.61359787      -0.50313187       1.41481400
O       -2.16171265      -0.69378281       2.43962860
O       -0.68541336       0.38093376       1.14063072
H        0.28533173       0.93619728      -0.47489548
H        0.85500717      -0.49141502       0.37874031
H       -0.59387970      -1.68640900      -1.20133591
H       -1.48006821      -0.33322906      -1.51272392
10
Properties=species:S:1:pos:R:3 name=EC mapped_smiles="[C:1]1([H:7])([H:8])[C:2]([H:9])([H:10])[O:3][C:4](=[O:5])[O:6]1" pbc="F F F"
C        0.00000000       0.00000000       0.00000000
C        0.19509888      -1.45869446      -0.43096161
O       -0.80742836      -2.18468285       0.38448524
C       -1.63780785      -1.27294540       0.96685410
O       -2.68954849      -1.49234009       1.43792915
O       -1.24925423       0.03187943       0.80067444
H       -0.16066551       0.74226952      -0.82175446
H        0.81641006       0.37175751       0.62846947
H        1.26959229      -1.74362373      -0.31350708
H       -0.07270241      -1.55396843      -1.46693611
10
Properties=species:S:1:pos:R:3 name=EC mapped_smiles="[C:1]1([H:7])([H:8])[C:2]([H:9])([H:10])[O:3][C:4](=[O:5])[O:6]1" pbc="F F F"
C       -6.56472015       0.10784149       5.53429794
C       -5.87308121       0.80470467       4.28473473
O       -4.68672180       0.02413177       4.09955978
C       -4.35979271      -0.63062668       5.27942276
O       -3.34965515      -1.20538330       5.56061554
O       -5.42839813      -0.45772552       6.18992615
H       -7.23493004      -0.63982010       5.23166656
H       -7.03532028       0.76036453       6.22116852
H       -5.67288971       1.88889694       4.41614151
H       -6.44444275       0.79290009       3.39611244
10
Properties=species:S:1:pos:R:3 name=EC mapped_smiles="[C:1]1([H:7])([H:8])[C:2]([H:9])([H:10])[O:3][C:4](=[O:5])[O:6]1" pbc="F F F"
C        0.00000000       0.00000000       0.00000000
C        0.81733322      -0.33888054       1.20526886
O        0.17176056       0.47074318       2.24552155
C       -0.39450836       1.50134850       1.69791794
O       -0.99378586       2.35622025       2.30313873
O       -0.29549789       1.42285156       0.34162140
H       -0.95935440      -0.48522949      -0.07735825
H        0.64537430      -0.19407654      -0.85917282
H        1.89741516      -0.15563011       1.22966385
H        0.72920227      -1.41176987       1.42697525
10
Properties=species:S:1:pos:R:3 name=EC mapped_smiles="[C:1]1([H:7])([H:8])[C:2]([H:9])([H:10])[O:3][C:4](=[O:5])[O:6]1" pbc="F F F"
C        0.00000000       0.00000000       0.00000000
C        1.36372757       0.72211075      -0.32207108
O        2.06908417       0.79535294       0.89353180
C        1.23875427       0.29026794       1.93672371
O        1.52992249       0.21912003       3.08693314
O        0.09896469      -0.19093323       1.45230675
H       -0.07217407      -0.98954010      -0.44318581
H       -0.94152069       0.59852219      -0.12644386
H        1.14011383       1.73036575      -0.76729584
H        2.01914597       0.15158844      -1.06066132
10
Properties=species:S:1:pos:R:3 name=EC mapped_smiles="[C:1]1([H:7])([H:8])[C:2]([H:9])([H:10])[O:3][C:4](=[O:5])[O:6]1" pbc="F F F"
C        0.64129257      -5.33735657      -2.10145187
C        0.19125366      -4.83310509      -0.76386642
O       -0.91974258      -5.71196365      -0.47354317
C       -1.40790176      -6.22523117      -1.67673683
O       -2.44573593      -6.80981445      -1.88812256
O       -0.52774048      -6.11072922      -2.61251831
H        1.44478989      -5.99237251      -2.10756874
H        0.85535431      -4.47522545      -2.77641487
H       -0.14144516      -3.77614021      -0.77562904
H        0.91873169      -4.99777412       0.01359940
10
Properties=species:S:1:pos:R:3 name=EC mapped_smiles="[C:1]1([H:7])([H:8])[C:2]([H:9])([H:10])[O:3][C:4](=[O:5])[O:6]1" pbc="F F F"
C        0.00000000       0.00000000       0.00000000
C        0.24069214      -1.34185219       0.53174019
O       -0.69697571      -1.45459366       1.56985474
C       -0.94156647      -0.19333649       2.08027267
O       -1.50833893       0.02353287       3.11055565
O       -0.45283508       0.77485657       1.19029617
H       -0.72588348       0.08490181      -0.78313255
H        0.90430069       0.39880562      -0.39061737
H        1.19649887      -1.33191681       1.13359833
H        0.22941971      -2.21026993      -0.15622520
10
Properties=species:S:1:pos:R:3 name=EC mapped_smiles="[C:1]1([H:7])([H:8])[C:2]([H:9])([H:10])[O:3][C:4](=[O:5])[O:6]1" pbc="F F F"
C       -5.20146942       0.39051437       0.87823677
C       -4.83223724       1.73011398       1.50529480
O       -3.51197624       1.94279099       0.98781395
C       -3.10161591       0.96514511       0.10978699
O       -2.00221062       0.99506569      -0.44680214
O       -4.07880020       0.00749588      -0.04117012
H       -6.12183571       0.50584412       0.30304718
H       -5.41638565      -0.36489105       1.57739830
H       -4.95402145       1.83087540       2.58846664
H       -5.49169540       2.46977997       1.05901909
10
Properties=species:S:1:pos:R:3 name=EC mapped_smiles="[C:1]1([H:7])([H:8])[C:2]([H:9])([H:10])[O:3][C:4](=[O:5])[O:6]1" pbc="F F F"
C        0.00000000       0.00000000       0.00000000
C       -1.23144913       0.26361084      -0.92107773
O       -2.17075729       0.77980995      -0.10685730
C       -1.73939896       0.75507545       1.15266800
O       -2.34430313       1.20193291       2.07492828
O       -0.54791641       0.04038811       1.29958344
H        0.64591599       0.85886192      -0.11251450
H        0.51666260      -0.97316742      -0.13950729
H       -1.62892914      -0.59740067      -1.51124573
H       -1.04769897       1.06019402      -1.68631744
10
Properties=species:S:1:pos:R:3 name=EC mapped_smiles="[C:1]1([H:7])([H:8])[C:2]([H:9])([H:10])[O:3][C:4](=[O:5])[O:6]1" pbc="F F F"
C        0.00000000       0.00000000       0.00000000
C       -0.41748810       0.11362648      -1.47317123
O       -0.76563644       1.51319313      -1.58591843
C       -1.00300980       2.08429337      -0.31841278
O       -1.36903763       3.19952011      -0.00778580
O       -0.70566177       1.13162994       0.61582565
H        0.99237823       0.31098557       0.15812683
H       -0.10715103      -1.02147675       0.47716141
H       -1.27237701      -0.50813293      -1.82445526
H        0.46727753      -0.09329224      -2.09248734
10
Properties=species:S:1:pos:R:3 name=EC mapped_smiles="[C:1]1([H:7])([H:8])[C:2]([H:9])([H:10])[O:3][C:4](=[O:5])[O:6]1" pbc="F F F"
C        0.00000000       0.00000000       0.00000000
C        1.38799667      -0.53092575      -0.32936478
O        1.96691895       0.72618866      -0.86973953
C        1.01444626       1.53528214      -1.21654129
O        1.10084152       2.45787430      -1.98830795
O       -0.13896179       1.29841614      -0.52973938
H       -0.12850952       0.09603119       1.09381866
H       -0.78113556      -0.63252258      -0.35851669
H        1.45600128      -1.24838257      -1.13913345
H        2.00911331      -0.98302460       0.44552231
10
Properties=species:S:1:pos:R:3 name=EC mapped_smiles="[C:1]1([H:7])([H:8])[C:2]([H:9])([H:10])[O:3][C:4](=[O:5])[O:6]1" pbc="F F F"
C        0.00000000       0.00000000       0.00000000
C        0.57345200      -0.71345329       1.24078941
O       -0.47176933      -0.61141777       2.18307304
C       -1.16727829       0.51890755       1.88944054
O       -2.02734184       1.04494286       2.51990128
O       -0.84938049       0.99383926       0.70274162
H       -0.62664223      -0.60458565      -0.70886612
H        0.74896431       0.55508804      -0.53152657
H        1.53582191      -0.23863602       1.57632637
H        0.84316444      -1.75971985       1.12061882
10
Properties=species:S:1:pos:R:3 name=EC mapped_smiles="[C:1]1([H:7])([H:8])[C:2]([H:9])([H:10])[O:3][C:4](=[O:5])[O:6]1" pbc="F F F"
C        0.00000000       0.00000000       0.00000000
C        0.37082291       1.06263733       1.00243378
O       -0.87240982       1.78475571       1.26687431
C       -1.77821541       1.24057388       0.50367355
O       -2.88986588       1.61851883       0.48768997
O       -1.42908478       0.13441467      -0.22331810
H        0.09834290      -1.06861115       0.32790947
H        0.54552650       0.11151505      -0.98635864
H        1.14924622       1.70941925       0.58276939
H        0.73692513       0.83809280       2.03339005
10
Properties=species:S:1:pos:R:3 name=EC mapped_smiles="[C:1]1([H:7])([H:8])[C:2]([H:9])([H:10])[O:3][C:4](=[O:5])[O:6]1" pbc="F F F"
C        0.00000000       0.00000000       0.00000000
C        0.64291382       1.30335999      -0.43474770
O        1.17168617       1.86495972       0.87684822
C        0.89216805       0.94945908       1.86467171
O        1.32447052       1.04442215       2.99182320
O        0.22853279      -0.11650085       1.40255165
H        0.49069405      -0.89426994      -0.56115913
H       -1.07195663      -0.01971817      -0.21701050
H       -0.11081314       1.94717407      -0.89233208
H        1.48114014       1.20738220      -1.12813377
10
Properties=species:S:1:pos:R:3 name=EC mapped_smiles="[C:1]1([H:7])([H:8])[C:2]([H:9])([H:10])[O:3][C:4](=[O:5])[O:6]1" pbc="F F F"
C        0.92959976       3.89666367       0.95797157
C        1.63958359       4.70625877      -0.08612633
O        2.37406158       5.75276947       0.66853142
C        2.32656097       5.39111328       1.99689102
O        2.83250046       6.00487137       2.90130806
O        1.54050827       4.35084152       2.18016624
H        1.07015228       2.80909348       0.88614655
H       -0.12454224       3.96151543       0.90539742
H        0.92436981       5.14315414      -0.81978226
H        2.33274078       4.13481140      -0.69773674
10
Properties=species:S:1:pos:R:3 name=EC mapped_smiles="[C:1]1([H:7])([H:8])[C:2]([H:9])([H:10])[O:3][C:4](=[O:5])[O:6]1" pbc="F F F"
C        0.00000000       0.00000000       0.00000000
C        1.39345932      -0.44881821       0.11234665
O        1.33844185      -1.75373268       0.53812790
C        0.13308716      -2.30080223       0.33618164
O       -0.14537048      -3.45892334       0.38816071
O       -0.74827957      -1.27447128       0.03141403
H       -0.14673042       0.63230515      -0.86344528
H       -0.28682899       0.66796112       0.88592911
H        1.95346832       0.21554565       0.79461670
H        2.06019974      -0.33826828      -0.71022415
10
Properties=species:S:1:pos:R:3 name=EC mapped_smiles="[C:1]1([H:7])([H:8])[C:2]([H:9])([H:10])[O:3][C:4](=[O:5])[O:6]1" pbc="F F F"
C        0.00000000       0.00000000       0.00000000
C        0.30304527       1.26213837       0.84225464
O        0.75977898       2.23915482      -0.06742477
C        0.76827812       1.74735641      -1.35774994
O        1.01753998       2.33545685      -2.33195877
O        0.33656693       0.49930573      -1.33250046
H       -1.02398491      -0.43883133      -0.01115417
H        0.72435760      -0.76183701       0.21672440
H        1.17779160       1.11101913       1.43711853
H       -0.51853943       1.70483208       1.37073135
10
Properties=species:S:1:pos:R:3 name=EC mapped_smiles="[C:1]1([H:7])([H:8])[C:2]([H:9])([H:10])[O:3][C:4](=[O:5])[O:6]1" pbc="F F F"
C        2.61900330       1.73757935       3.84750748
C        2.41250610       0.49962234       4.69830704
O        1.49716187      -0.16489792       3.86069298
C        1.70198059       0.20055008       2.57087517
O        1.20777130      -0.29007339       1.59806442
O        2.56196213       1.24183273       2.52595520
H        3.56228256       2.22610474       4.07399368
H        1.81958389       2.41542053       4.00382423
H        1.92058182       0.68296814       5.67817688
H        3.29823303      -0.13078308       4.82941628
10
Properties=species:S:1:pos:R:3 name=EC mapped_smiles="[C:1]1([H:7])([H:8])[C:2]([H:9])([H:10])[O:3][C:4](=[O:5])[O:6]1" pbc="F F F"
C        0.00000000       0.00000000       0.00000000
C        1.10843849      -0.65518188       0.88019180
O        0.41498566      -1.30017471       1.91568375
C       -0.83537102      -1.47631836       1.57158470
O       -1.65638733      -2.14905548       2.16433525
O       -1.09756470      -0.84071350       0.39571953
H        0.25620651      -0.08942413      -1.01234436
H       -0.24332047       1.01708221       0.38554001
H        1.87672806       0.10251999       1.15793037
H        1.67318726      -1.35321808       0.22345161
10
Properties=species:S:1:pos:R:3 name=EC mapped_smiles="[C:1]1([H:7])([H:8])[C:2]([H:9])([H:10])[O:3][C:4](=[O:5])[O:6]1" pbc="F F F"
C       -2.45304871      -4.02968979       0.69946289
C       -2.53810120      -5.51597023       0.63249207
O       -3.93880463      -5.79640198       0.86834526
C       -4.64449310      -4.65114021       0.87952805
O       -5.87231445      -4.60824776       1.10856438
O       -3.80189705      -3.59893417       0.54283714
H       -1.78079224      -3.54688454      -0.05241203
H       -2.15467072      -3.72342682       1.74620056
H       -1.88055801      -6.08620071       1.34541893
H       -2.26348877      -5.92717361      -0.35912704
10
Properties=species:S:1:pos:R:3 name=EC mapped_smiles="[C:1]1([H:7])([H:8])[C:2]([H:9])([H:10])[O:3][C:4](=[O:5])[O:6]1" pbc="F F F"
C        0.00000000       0.00000000       0.00000000
C       -0.24520874      -1.43054771       0.44305420
O       -1.57353020      -1.38023758       0.95358467
C       -1.97856522      -0.13224983       1.21921349
O       -2.97584152       0.19749451       1.79526138
O       -0.97094345       0.71398163       0.83885574
H       -0.28088570       0.14775848      -1.06782913
H        0.99601936       0.36990929       0.11338997
H        0.43486023      -1.68660545       1.22059441
H       -0.20824623      -2.03993607      -0.43099022
10
Properties=species:S:1:pos:R:3 name=EC mapped_smiles="[C:1]1([H:7])([H:8])[C:2]([H:9])([H:10])[O:3][C:4](=[O:5])[O:6]1" pbc="F F F"
C        0.00000000       0.00000000       0.00000000
C        1.15388107      -0.19029617      -0.86861420
O        0.68085098      -0.04907990      -2.20936203
C       -0.65872955       0.08463669      -2.19544983
O       -1.33569145       0.23499680      -3.20507050
O       -1.06420135       0.29059219      -0.92014885
H        0.12734413       0.77758026       0.72201157
H       -0.25464249      -0.84425354       0.53807449
H        1.45962906      -1.22128296      -0.78376389
H        2.02807999       0.42086411      -0.71926880
10
Properties=species:S:1:pos:R:3 name=EC mapped_smiles="[C:1]1([H:7])([H:8])[C:2]([H:9])([H:10])[O:3][C:4](=[O:5])[O:6]1" pbc="F F F"
C        3.28063011      -5.34364510       1.34304810
C        1.83248711      -4.74226570       1.36314774
O        1.30456352      -5.06385422       2.64377975
C        2.30566788      -5.67618370       3.39550018
O        2.13335228      -5.77103043       4.59482574
O        3.40311623      -6.03124619       2.68241501
H        4.08998299      -4.58365250       1.29561996
H        3.58849525      -6.10999489       0.59398270
H        1.23474121      -5.14504814       0.54631042
H        1.70400047      -3.66635132       1.23189926
10
Properties=species:S:1:pos:R:3 name=EC mapped_smiles="[C:1]1([H:7])([H:8])[C:2]([H:9])([H:10])[O:3][C:4](=[O:5])[O:6]1" pbc="F F F"
C        0.00000000       0.00000000       0.00000000
C       -0.43203735      -1.39603615      -0.15171051
O        0.68083954      -2.18362999       0.20260620
C        1.50904465      -1.36875916       0.88848495
O        2.45783615      -1.80691338       1.51164627
O        1.22457123      -0.09752083       0.72188759
H       -0.62910843       0.61653900       0.57747078
H        0.20929718       0.44977379      -0.98516083
H       -0.75486755      -1.66946602      -1.22594261
H       -1.26946640      -1.74440575       0.57156181
