10
Properties=species:S:1:pos:R:3 name=EC mapped_smiles="[C:1]1([H:7])([H:8])[C:2]([H:9])([H:10])[O:3][C:4](=[O:5])[O:6]1" pbc="F F F"
C        5.59343338      -8.89294243      -2.49843216
C        6.04812241      -7.63160324      -3.31708145
O        5.53209686      -6.54619598      -2.43200874
C        4.70950317      -6.99831390      -1.50822830
O        4.10471344      -6.17770004      -0.86943054
O        4.70206070      -8.39913559      -1.44832420
H        6.40976715      -9.37997341      -2.06079865
H        5.09406281      -9.61246490      -3.09457397
H        5.57262421      -7.57330704      -4.29218864
H        7.17785263      -7.57866287      -3.33482742
10
Properties=species:S:1:pos:R:3 name=EC mapped_smiles="[C:1]1([H:7])([H:8])[C:2]([H:9])([H:10])[O:3][C:4](=[O:5])[O:6]1" pbc="F F F"
C        7.35256004       0.20463943      -5.63745499
C        7.51122665      -1.22879410      -6.02823257
O        6.14613533      -1.64142227      -6.02714539
C        5.25900459      -0.73246765      -5.46993065
O        4.12150383      -0.93365097      -5.18822289
O        5.94303322       0.42165756      -5.29817581
H        7.67373657       0.97790718      -6.31433868
H        7.93319702       0.31749344      -4.70498848
H        8.18330002      -1.76303482      -5.36098671
H        7.86301804      -1.35877609      -7.05109024
10
Properties=species:S:1:pos:R:3 name=EC mapped_smiles="[C:1]1([H:7])([H:8])[C:2]([H:9])([H:10])[O:3][C:4](=[O:5])[O:6]1" pbc="F F F"
C        1.47434044       0.38765526       4.17974663
C        2.49702644      -0.78781700       4.35758972
O        1.65384674      -1.89977264       4.15155983
C        0.31943130      -1.50141525       4.26078796
O       -0.59306526      -2.26558876       4.12772179
O        0.18805504      -0.20247078       4.31712341
H        1.60773468       0.80194855       3.17945480
H        1.66397858       1.20408630       4.90204620
H        3.02632523      -0.83966827       5.31394005
H        3.26419449      -0.78592110       3.59893417
10
Properties=species:S:1:pos:R:3 name=EC mapped_smiles="[C:1]1([H:7])([H:8])[C:2]([H:9])([H:10])[O:3][C:4](=[O:5])[O:6]1" pbc="F F F"
C        3.82734680      -0.13026810      -0.69374084
C        4.48440933      -0.96085739      -1.76114655
O        5.74462891      -1.34157562      -1.14973831
C        5.97510147      -0.72019577       0.01179886
O        7.05264664      -0.65838623       0.55760956
O        4.78053093      -0.18592072       0.47993469
H        2.83171844      -0.51485825      -0.38322449
H        3.62862396       0.90938568      -1.08138657
H        4.66929626      -0.40985107      -2.69556808
H        3.95097351      -1.83852386      -2.03429413
10
Properties=species:S:1:pos:R:3 name=EC mapped_smiles="[C:1]1([H:7])([H:8])[C:2]([H:9])([H:10])[O:3][C:4](=[O:5])[O:6]1" pbc="F F F"
C        4.30425835      -0.71920013      -2.47101593
C        3.09485054      -1.52125549      -2.67345810
O        2.63432503      -1.20226097      -4.00266647
C        3.47151756      -0.24301529      -4.51919746
O        3.35375023       0.13300133      -5.63692284
O        4.33099556       0.19686699      -3.56612968
H        5.22250938      -1.26721001      -2.36088562
H        4.23698997      -0.27837181      -1.46757317
H        2.18732262      -1.36487007      -2.04612541
H        3.36630821      -2.58242035      -2.67185593
10
Properties=species:S:1:pos:R:3 name=EC mapped_smiles="[C:1]1([H:7])([H:8])[C:2]([H:9])([H:10])[O:3][C:4](=[O:5])[O:6]1" pbc="F F F"
C        1.38871956      -6.39883804      -2.86890030
C        1.28148842      -5.99411392      -1.38667297
O        1.77927399      -7.16237259      -0.67875290
C        1.72722626      -8.18832970      -1.55381203
O        1.96098137      -9.30486107      -1.27490616
O        1.36109924      -7.79447746      -2.85414886
H        2.32424164      -6.13158417      -3.40116882
H        0.55151939      -6.00843430      -3.42149734
H        0.30024910      -5.93931961      -1.12681961
H        1.73807335      -5.01882172      -1.12739182
10
Properties=species:S:1:pos:R:3 name=EC mapped_smiles="[C:1]1([H:7])([H:8])[C:2]([H:9])([H:10])[O:3][C:4](=[O:5])[O:6]1" pbc="F F F"
C       -1.40885162      -6.39383316      -5.16757584
C        0.05814552      -6.24985123      -5.81487083
O       -0.19552231      -6.80032730      -7.17235565
C       -1.45175552      -7.30466080      -7.21928596
O       -1.79017258      -8.12139893      -8.04949951
O       -2.20639038      -6.80004501      -6.23070717
H       -1.81242752      -5.51803970      -4.67022324
H       -1.38359451      -7.11059952      -4.24877548
H        0.75336075      -6.92152786      -5.28809738
H        0.44839287      -5.21677017      -5.73590088
10
Properties=species:S:1:pos:R:3 name=EC mapped_smiles="[C:1]1([H:7])([H:8])[C:2]([H:9])([H:10])[O:3][C:4](=[O:5])[O:6]1" pbc="F F F"
C       -4.91769028       3.57503128      -1.88955307
C       -5.16276169       2.69533539      -3.12845612
O       -6.37477493       1.98181534      -2.66494751
C       -7.04522324       2.65442657      -1.66539001
O       -8.17501068       2.32649612      -1.35958099
O       -6.23248672       3.56446457      -1.14242172
H       -4.57613754       4.57261658      -2.10761642
H       -4.19560242       3.23036575      -1.12112045
H       -4.38603592       1.90518188      -3.27012634
H       -5.45164490       3.30309296      -4.02900314
10
Properties=species:S:1:pos:R:3 name=EC mapped_smiles="[C:1]1([H:7])([H:8])[C:2]([H:9])([H:10])[O:3][C:4](=[O:5])[O:6]1" pbc="F F F"
C        3.26248550      -5.47473145       1.00790787
C        4.69655609      -5.04563904       0.95038986
O        4.60137177      -3.73160172       0.33070755
C        3.40885925      -3.48052216      -0.17575073
O        3.00019836      -2.53696823      -0.85390663
O        2.62826920      -4.57683182       0.06020927
H        2.70131302      -5.39197540       1.96014977
H        3.19052124      -6.46515274       0.55923271
H        5.37249374      -5.70277023       0.37128067
H        5.20402908      -4.89000320       1.91717911
10
Properties=species:S:1:pos:R:3 name=EC mapped_smiles="[C:1]1([H:7])([H:8])[C:2]([H:9])([H:10])[O:3][C:4](=[O:5])[O:6]1" pbc="F F F"
C        2.66534424       4.74538231      -1.51652527
C        3.73451233       5.55918121      -0.71220016
O        4.81959534       4.57811737      -0.56729889
C        4.45941544       3.40942192      -1.20878220
O        5.23189163       2.51885986      -1.24313354
O        3.26593399       3.47786903      -1.78277588
H        2.31546021       5.16576767      -2.48097229
H        1.72640038       4.57144928      -0.86783600
H        3.46789169       5.80063438       0.25690460
H        4.16493607       6.34679413      -1.27921295
10
Properties=species:S:1:pos:R:3 name=EC mapped_smiles="[C:1]1([H:7])([H:8])[C:2]([H:9])([H:10])[O:3][C:4](=[O:5])[O:6]1" pbc="F F F"
C        4.06202698      -2.25232315       2.09007645
C        4.94445419      -1.81226730       0.92250061
O        4.15737534      -0.85110474       0.19318581
C        2.89566040      -0.80937576       0.71976280
O        1.94511795      -0.36923599       0.16998291
O        2.77492905      -1.49452591       1.93380165
H        4.38050842      -1.85930252       3.08451653
H        3.88898087      -3.33095169       2.23904800
H        5.25840378      -2.63832855       0.30107117
H        5.91609192      -1.27127457       1.19409180
10
Properties=species:S:1:pos:R:3 name=EC mapped_smiles="[C:1]1([H:7])([H:8])[C:2]([H:9])([H:10])[O:3][C:4](=[O:5])[O:6]1" pbc="F F F"
C       -8.67820930      -3.69089890      -1.11240005
C       -8.41089439      -2.70117569      -2.20021057
O       -7.45102310      -1.86338425      -1.59281921
C       -6.79827690      -2.59652710      -0.64093781
O       -5.85420799      -2.23009491      -0.04019356
O       -7.44927216      -3.66904068      -0.36488342
H       -8.99856567      -4.67494583      -1.51804352
H       -9.44411659      -3.32584763      -0.43939209
H       -9.33852386      -2.11948586      -2.45978737
H       -7.97099113      -3.20306778      -3.06810570
10
Properties=species:S:1:pos:R:3 name=EC mapped_smiles="[C:1]1([H:7])([H:8])[C:2]([H:9])([H:10])[O:3][C:4](=[O:5])[O:6]1" pbc="F F F"
C        4.87671280       3.97843742      -1.16209984
C        5.15580368       3.18783188       0.08233261
O        5.18922806       1.81271935      -0.40465546
C        4.90316772       1.80452919      -1.72582054
O        4.87956619       0.84407616      -2.39146233
O        4.69356918       3.06033325      -2.22567749
H        5.57756424       4.83875656      -1.38495636
H        3.96462631       4.39384460      -1.12137413
H        4.33503342       3.19464684       0.79631996
H        6.10724640       3.48018646       0.56716537
10
Properties=species:S:1:pos:R:3 name=EC mapped_smiles="[C:1]1([H:7])([H:8])[C:2]([H:9])([H:10])[O:3][C:4](=[O:5])[O:6]1" pbc="F F F"
C       -0.93373108       0.75728035       4.21565628
C       -0.72173309       2.09412766       3.62561798
O        0.52559090       1.96092033       2.91648865
C        1.07036591       0.75011826       3.30451965
O        2.11400604       0.32646179       2.87364197
O        0.29045486       0.06031799       4.13479233
H       -1.56255722       0.13247681       3.66154480
H       -1.29490471       0.78503036       5.24090958
H       -0.60192299       2.78782272       4.43408203
H       -1.50502586       2.35037994       2.91780472
10
Properties=species:S:1:pos:R:3 name=EC mapped_smiles="[C:1]1([H:7])([H:8])[C:2]([H:9])([H:10])[O:3][C:4](=[O:5])[O:6]1" pbc="F F F"
C       -5.08421326       0.73704529      -0.62460136
C       -4.62249756       1.58687592      -1.83574104
O       -5.44759369       2.72754288      -1.71977234
C       -6.13230896       2.70807648      -0.55588531
O       -6.93538284       3.55143738      -0.23898697
O       -6.07863998       1.48052597       0.10172081
H       -4.30390167       0.33693695       0.05347633
H       -5.70528412      -0.11502075      -0.89598083
H       -4.73144150       1.18946648      -2.88387299
H       -3.60186005       1.85003471      -1.76561737
10
Properties=species:S:1:pos:R:3 name=EC mapped_smiles="[C:1]1([H:7])([H:8])[C:2]([H:9])([H:10])[O:3][C:4](=[O:5])[O:6]1" pbc="F F F"
C        3.80688095      -5.36292267       6.12559319
C        2.64609909      -6.11868858       5.67387009
O        1.62609482      -5.69225311       6.55486488
C        1.98946953      -4.68407822       7.31765366
O        1.33759689      -4.10111046       8.13385391
O        3.26911163      -4.41007233       7.10330582
H        4.34995270      -4.87807846       5.41751480
H        4.51603699      -6.01563644       6.55613136
H        2.73025894      -7.22416306       5.85700417
H        2.35060120      -5.92532349       4.59984970
10
Properties=species:S:1:pos:R:3 name=EC mapped_smiles="[C:1]1([H:7])([H:8])[C:2]([H:9])([H:10])[O:3][C:4](=[O:5])[O:6]1" pbc="F F F"
C       -2.10764694       7.22706985       0.71404648
C       -1.53801727       6.66221237       2.05455017
O       -2.38316727       7.51017761       3.00981140
C       -3.53784943       7.94048500       2.41418266
O       -4.51483154       8.28319168       3.01237679
O       -3.38762665       7.79782867       1.02759361
H       -2.33871078       6.50810242      -0.07689667
H       -1.43867111       7.94930077       0.24381256
H       -0.48045731       6.89467621       2.30121803
H       -1.84855652       5.59777832       2.17042923
10
Properties=species:S:1:pos:R:3 name=EC mapped_smiles="[C:1]1([H:7])([H:8])[C:2]([H:9])([H:10])[O:3][C:4](=[O:5])[O:6]1" pbc="F F F"
C       -1.31218719       1.62424088       3.96217537
C       -1.12785530       2.37262154       2.60964775
O        0.25358391       2.24938583       2.32645798
C        0.89368057       1.63559723       3.32157516
O        2.02980042       1.31268501       3.28815269
O        0.01362038       1.60935211       4.43946075
H       -1.60819054       0.56038475       3.83629608
H       -1.93702126       2.14545250       4.71039009
H       -1.30998421       3.47176743       2.55400658
H       -1.69608879       1.94293594       1.77804947
10
Properties=species:S:1:pos:R:3 name=EC mapped_smiles="[C:1]1([H:7])([H:8])[C:2]([H:9])([H:10])[O:3][C:4](=[O:5])[O:6]1" pbc="F F F"
C       -6.02174759       5.26274490       1.01986504
C       -4.61047554       5.79353714       1.00461960
O       -3.81864548       4.55076218       0.88570213
C       -4.58803940       3.44013977       1.21669006
O       -4.19512939       2.30628586       1.41082764
O       -5.86382675       3.86086273       1.19244194
H       -6.54376984       5.39042282       0.09320259
H       -6.59330750       5.70678329       1.87668610
H       -4.47430420       6.15625381       2.02952957
H       -4.34181595       6.55869293       0.26383209
10
Properties=species:S:1:pos:R:3 name=EC mapped_smiles="[C:1]1([H:7])([H:8])[C:2]([H:9])([H:10])[O:3][C:4](=[O:5])[O:6]1" pbc="F F F"
C       -5.58550262       1.01629448       0.37257004
C       -4.69666290       1.38778114       1.51820374
O       -5.45020294       1.01602554       2.71487427
C       -6.45245743       0.19503212       2.31687546
O       -7.11254883      -0.41542625       3.12312317
O       -6.50652695       0.05698013       0.94855881
H       -5.00574112       0.65069580      -0.51912689
H       -6.23480988       1.90296936       0.10743332
H       -4.31020737       2.41878128       1.45851898
H       -3.71159744       0.89258575       1.65428162
10
Properties=species:S:1:pos:R:3 name=EC mapped_smiles="[C:1]1([H:7])([H:8])[C:2]([H:9])([H:10])[O:3][C:4](=[O:5])[O:6]1" pbc="F F F"
C        2.50059509       3.61379242       7.14012337
C        3.47575378       3.05009460       8.15170670
O        3.79241562       1.73451233       7.70022774
C        3.20869064       1.45309830       6.44400024
O        3.26313019       0.40781784       5.84923935
O        2.58419037       2.55951691       6.07887077
H        2.59426498       4.57204056       6.63692284
H        1.49356461       3.59532547       7.51844406
H        3.05777359       3.00001526       9.20606995
H        4.32026672       3.61747360       8.02997780
10
Properties=species:S:1:pos:R:3 name=EC mapped_smiles="[C:1]1([H:7])([H:8])[C:2]([H:9])([H:10])[O:3][C:4](=[O:5])[O:6]1" pbc="F F F"
C        3.41829300      -0.14616013      -3.63412476
C        2.36550522      -1.26848221      -4.05073929
O        1.94886017      -0.80185318      -5.34201622
C        2.70526886       0.29081345      -5.72035408
O        2.60430145       0.89247131      -6.73944855
O        3.63758087       0.64902496      -4.80122375
H        4.40205002      -0.48916626      -3.21149063
H        2.94677734       0.46214676      -2.81415367
H        1.55149841      -1.33557892      -3.33546638
H        2.83537674      -2.21804047      -4.12649345
10
Properties=species:S:1:pos:R:3 name=EC mapped_smiles="[C:1]1([H:7])([H:8])[C:2]([H:9])([H:10])[O:3][C:4](=[O:5])[O:6]1" pbc="F F F"
C       -3.16939545       3.41511726       9.22122955
C       -2.47998810       2.08094025       8.91366196
O       -3.15261078       1.26614189       9.84849167
C       -3.69126129       2.06713676      10.83345413
O       -4.15405273       1.62280273      11.84928513
O       -3.53429413       3.33583832      10.59661102
H       -4.09701920       3.49826241       8.64345169
H       -2.43643188       4.21034241       9.04853439
H       -1.37999725       2.07235336       9.06982040
H       -2.58757782       1.82131767       7.88986397
10
Properties=species:S:1:pos:R:3 name=EC mapped_smiles="[C:1]1([H:7])([H:8])[C:2]([H:9])([H:10])[O:3][C:4](=[O:5])[O:6]1" pbc="F F F"
C       -2.85845566      -3.76759720       0.45768547
C       -3.18918610      -2.69398117      -0.50906181
O       -4.64713478      -2.69605446      -0.55822182
C       -5.12637138      -3.35723877       0.51765251
O       -6.26795197      -3.44817543       0.81389427
O       -4.14699554      -3.95260429       1.21747208
H       -2.12040710      -3.46819305       1.14297676
H       -2.48230362      -4.67846680      -0.11209869
H       -2.83610344      -2.80905151      -1.55221176
H       -2.84725571      -1.74384308      -0.10437202
10
Properties=species:S:1:pos:R:3 name=EC mapped_smiles="[C:1]1([H:7])([H:8])[C:2]([H:9])([H:10])[O:3][C:4](=[O:5])[O:6]1" pbc="F F F"
C       -5.47998619       1.04425240      -4.65009689
C       -5.35241890       2.52881432      -4.95928192
O       -3.99316216       2.80084419      -4.56497955
C       -3.38592148       1.66774559      -4.09883499
O       -2.25297165       1.63914680      -3.70827293
O       -4.21119690       0.62142372      -4.02194405
H       -5.66180611       0.39415550      -5.51924515
H       -6.29024887       0.76635933      -3.95620728
H       -6.02048111       3.11784172      -4.33151627
H       -5.53540230       2.89810371      -5.95767975
10
Properties=species:S:1:pos:R:3 name=EC mapped_smiles="[C:1]1([H:7])([H:8])[C:2]([H:9])([H:10])[O:3][C:4](=[O:5])[O:6]1" pbc="F F F"
C       -0.54456711       0.73243332       4.94507599
C       -0.80993652      -0.49649429       4.10441589
O        0.35511398      -0.61771965       3.15012360
C        1.33081436       0.22683334       3.55194092
O        2.37366867       0.38088608       2.94123840
O        0.92097473       0.87591934       4.75621033
H       -0.91715240       0.59878922       5.96113968
H       -0.96084213       1.65351486       4.55916595
H       -1.74423981      -0.52745438       3.50166702
H       -0.67428970      -1.39574242       4.68852234
10
Properties=species:S:1:pos:R:3 name=EC mapped_smiles="[C:1]1([H:7])([H:8])[C:2]([H:9])([H:10])[O:3][C:4](=[O:5])[O:6]1" pbc="F F F"
C        5.94458771       6.70683670      -2.95868683
C        5.69170380       6.84663010      -4.47700882
O        4.66836929       5.75959396      -4.75096893
C        4.15419006       5.41409683      -3.52143097
O        3.29550552       4.57449722      -3.39370728
O        4.70482635       6.08483505      -2.52503967
H        6.14879990       7.68835449      -2.47339630
H        6.79954910       6.02172852      -2.90957260
H        6.63195419       6.68023300      -5.02347946
H        5.27468872       7.80697632      -4.81920242
10
Properties=species:S:1:pos:R:3 name=EC mapped_smiles="[C:1]1([H:7])([H:8])[C:2]([H:9])([H:10])[O:3][C:4](=[O:5])[O:6]1" pbc="F F F"
C       -6.28625870       2.51357079      -1.41008949
C       -6.42424393       3.95051575      -0.99449348
O       -5.32091331       3.99078369      -0.10249329
C       -5.05919266       2.70959854       0.34021950
O       -4.37840462       2.43348312       1.30595970
O       -5.81662178       1.80064774      -0.34385681
H       -5.52593422       2.43453789      -2.19122314
H       -7.27643394       2.07609749      -1.79204369
H       -7.42350388       4.36510277      -0.54877853
H       -6.25356865       4.67461967      -1.83167648
10
Properties=species:S:1:pos:R:3 name=EC mapped_smiles="[C:1]1([H:7])([H:8])[C:2]([H:9])([H:10])[O:3][C:4](=[O:5])[O:6]1" pbc="F F F"
C       -7.72125626       4.74677277      -2.04449272
C       -6.98964310       5.88303757      -1.24106026
O       -6.04164505       5.05867004      -0.45447540
C       -6.14398575       3.70719147      -0.82257080
O       -5.47087479       2.79401779      -0.36107254
O       -7.16798782       3.42674255      -1.71229553
H       -7.35750198       4.83238602      -3.11929131
H       -8.84101868       4.67377090      -1.96908188
H       -7.68506241       6.39073181      -0.54344749
H       -6.40270615       6.70535660      -1.73405075
10
Properties=species:S:1:pos:R:3 name=EC mapped_smiles="[C:1]1([H:7])([H:8])[C:2]([H:9])([H:10])[O:3][C:4](=[O:5])[O:6]1" pbc="F F F"
C        3.46681213      -4.25355911       4.73516655
C        2.41804123      -3.51012802       5.54403496
O        2.58354950      -3.95879364       6.88870811
C        3.26311111      -5.12027740       6.86700630
O        3.47022820      -5.83196640       7.77557182
O        3.64769363      -5.45653725       5.58764839
H        4.46189880      -3.80529404       4.70838356
H        3.21818161      -4.66295242       3.69588280
H        1.40568733      -3.70853996       5.26373100
H        2.60063934      -2.39043045       5.54392052
10
Properties=species:S:1:pos:R:3 name=EC mapped_smiles="[C:1]1([H:7])([H:8])[C:2]([H:9])([H:10])[O:3][C:4](=[O:5])[O:6]1" pbc="F F F"
C        2.40560150       1.52315331      -3.15684509
C        3.68802643       2.22701836      -3.45033264
O        4.67192459       1.32770920      -2.99721336
C        4.15479660       0.06483078      -3.10302544
O        4.81438828      -0.94481468      -3.03260803
O        2.76531601       0.08413696      -3.17785072
H        1.47439575       1.80772400      -3.75685692
H        2.17981720       1.77487946      -2.12096214
H        3.72876740       3.17156410      -2.87636375
H        3.92076111       2.43579865      -4.48118973
10
Properties=species:S:1:pos:R:3 name=EC mapped_smiles="[C:1]1([H:7])([H:8])[C:2]([H:9])([H:10])[O:3][C:4](=[O:5])[O:6]1" pbc="F F F"
C        2.66811371      -6.07450485      -0.73910141
C        1.13294983      -6.06664848      -0.54403687
O        0.83386612      -7.36113167      -1.16742706
C        1.92399406      -8.20044899      -1.32869911
O        1.88256073      -9.28850555      -1.76691818
O        2.99526215      -7.57067490      -0.82560349
H        3.28101921      -5.60487747      -0.00852585
H        2.98681641      -5.69313049      -1.69080162
H        0.59935951      -5.29435158      -1.10107803
H        0.83653069      -6.04726791       0.48827362
10
Properties=species:S:1:pos:R:3 name=EC mapped_smiles="[C:1]1([H:7])([H:8])[C:2]([H:9])([H:10])[O:3][C:4](=[O:5])[O:6]1" pbc="F F F"
C        4.87823105      -0.64001846      -1.82819748
C        3.51582336      -0.10082054      -1.66670990
O        3.28930283       0.36270332      -0.31406021
C        4.54555511       0.36874390       0.28535461
O        4.72468567       0.94823456       1.26712799
O        5.42773056      -0.31108284      -0.48909378
H        5.52015686      -0.18854523      -2.62924576
H        4.96368790      -1.74146461      -1.85628128
H        2.81369591      -0.84559441      -1.94673157
H        3.15805817       0.62710762      -2.46139908
10
Properties=species:S:1:pos:R:3 name=EC mapped_smiles="[C:1]1([H:7])([H:8])[C:2]([H:9])([H:10])[O:3][C:4](=[O:5])[O:6]1" pbc="F F F"
C       -3.41638374       2.15480423       2.57661247
C       -3.70366287       1.85981750       1.12932968
O       -5.16032410       1.56207275       0.99505043
C       -5.61186409       1.73366165       2.27163696
O       -6.78765488       1.67871094       2.60655975
O       -4.69934845       2.07195282       3.16492462
H       -2.91756439       3.09289551       2.71465683
H       -2.87842560       1.32796478       3.07465744
H       -3.04759216       1.02677155       0.71278381
H       -3.54414940       2.71083832       0.57355118
10
Properties=species:S:1:pos:R:3 name=EC mapped_smiles="[C:1]1([H:7])([H:8])[C:2]([H:9])([H:10])[O:3][C:4](=[O:5])[O:6]1" pbc="F F F"
C       -3.33009148      -0.76930618       6.21240425
C       -3.18945694      -0.48657990       4.71205330
O       -2.11638641       0.54136658       4.80550957
C       -1.92707062       1.01709747       6.06493950
O       -1.27898026       1.96282959       6.33156395
O       -2.64878464       0.29833984       6.99633217
H       -2.88144302      -1.70849991       6.40719414
H       -4.36131287      -0.79732895       6.55027962
H       -3.97830963      -0.04626083       4.13655281
H       -2.88097763      -1.33128357       4.11433220
10
Properties=species:S:1:pos:R:3 name=EC mapped_smiles="[C:1]1([H:7])([H:8])[C:2]([H:9])([H:10])[O:3][C:4](=[O:5])[O:6]1" pbc="F F F"
C       -1.63511658      -2.40876389       4.81597900
C       -1.29878807      -0.88636398       4.98828125
O       -0.95578194      -0.40703964       3.63130760
C       -0.78355026      -1.54771614       2.78618813
O       -0.34528542      -1.45481110       1.68888474
O       -1.22230148      -2.73559570       3.43777847
H       -2.69350624      -2.62055206       4.73353958
H       -1.25871468      -3.00735664       5.63964844
H       -0.48953056      -0.70784950       5.69890976
H       -2.09891319      -0.35251808       5.45853806
10
Properties=species:S:1:pos:R:3 name=EC mapped_smiles="[C:1]1([H:7])([H:8])[C:2]([H:9])([H:10])[O:3][C:4](=[O:5])[O:6]1" pbc="F F F"
C       -1.83775330       4.19906616       1.46718407
C       -1.86994362       3.85136414       2.89837837
O       -0.52607727       3.32920456       3.09990311
C        0.22394943       3.39959335       1.96010399
O        1.39109612       3.05998039       1.90704155
O       -0.48914337       3.93420029       0.97725677
H       -2.03430939       5.29141808       1.21378517
H       -2.52910995       3.70116043       0.81888771
H       -2.63746262       3.09146881       3.04017639
H       -2.09206009       4.73653412       3.56274414
10
Properties=species:S:1:pos:R:3 name=EC mapped_smiles="[C:1]1([H:7])([H:8])[C:2]([H:9])([H:10])[O:3][C:4](=[O:5])[O:6]1" pbc="F F F"
C        3.87724304      -5.09984779       0.22776031
C        3.02707291      -3.83536148       0.23865700
O        4.09066772      -2.83456421       0.15203476
C        5.32450294      -3.30124283       0.41731262
O        6.40883827      -2.77872849       0.53635597
O        5.16766930      -4.60533905       0.56347656
H        3.97605515      -5.60810661      -0.74831963
H        3.57535934      -5.87274742       0.98286819
H        2.58921814      -3.81528854       1.21659279
H        2.25365829      -3.65415573      -0.43257904
10
Properties=species:S:1:pos:R:3 name=EC mapped_smiles="[C:1]1([H:7])([H:8])[C:2]([H:9])([H:10])[O:3][C:4](=[O:5])[O:6]1" pbc="F F F"
C        2.55973244       3.21854210       1.92619324
C        4.09896660       3.28168869       1.63981247
O        4.14952660       3.94743729       0.33911133
C        2.78553963       4.04020882      -0.14414215
O        2.44140434       4.54217720      -1.16713715
O        1.86489487       3.64103508       0.79953003
H        2.38462067       3.96329308       2.68823242
H        2.14628220       2.27796936       2.20541763
H        4.42890358       2.29253578       1.35532761
H        4.77065468       3.65801811       2.34716797
10
Properties=species:S:1:pos:R:3 name=EC mapped_smiles="[C:1]1([H:7])([H:8])[C:2]([H:9])([H:10])[O:3][C:4](=[O:5])[O:6]1" pbc="F F F"
C       -6.71969223      -5.45443916      -2.21194458
C       -6.26940918      -6.65582657      -1.35913086
O       -6.11050415      -7.76222229      -2.24447250
C       -6.89159393      -7.51051521      -3.32847977
O       -6.98220062      -8.30729103      -4.22626877
O       -7.28250504      -6.21570015      -3.40725327
H       -5.87983704      -4.82418823      -2.60648537
H       -7.57190323      -4.88613319      -1.75348473
H       -7.05123520      -7.01557922      -0.65249634
H       -5.26960754      -6.57805443      -0.82474518
