10
Properties=species:S:1:pos:R:3 name=EC mapped_smiles="[C:1]1([H:7])([H:8])[C:2]([H:9])([H:10])[O:3][C:4](=[O:5])[O:6]1" pbc="F F F"
C        7.81364441      -2.68912315      -0.18470764
C        6.83702087      -3.81755066      -0.57453537
O        5.63010406      -3.15587616      -0.98072052
C        5.82142258      -1.81176758      -1.05200958
O        5.00827789      -0.97102356      -1.40833092
O        7.10233307      -1.51589012      -0.63613510
H        8.78194809      -2.75495148      -0.59973526
H        7.91168594      -2.66149330       0.88922882
H        6.63140869      -4.47432709       0.26112366
H        7.22753143      -4.55101013      -1.32388878
10
Properties=species:S:1:pos:R:3 name=EC mapped_smiles="[C:1]1([H:7])([H:8])[C:2]([H:9])([H:10])[O:3][C:4](=[O:5])[O:6]1" pbc="F F F"
C        5.14414215      -4.75908279      -8.81305695
C        4.39681435      -3.44665909      -8.61495590
O        5.37720871      -2.46402359      -8.98663902
C        6.57704735      -3.09214401      -9.18681812
O        7.59505653      -2.47768021      -9.40938187
O        6.44437218      -4.38950729      -9.28163242
H        4.59177780      -5.30330276      -9.55297852
H        5.33638382      -5.31431961      -7.92313766
H        4.15797043      -3.22172928      -7.61224365
H        3.53089333      -3.39699173      -9.30024433
10
Properties=species:S:1:pos:R:3 name=EC mapped_smiles="[C:1]1([H:7])([H:8])[C:2]([H:9])([H:10])[O:3][C:4](=[O:5])[O:6]1" pbc="F F F"
C        4.78493881       4.65843773      -2.42139435
C        5.38418388       5.08255959      -0.99164391
O        4.87470055       4.10970116      -0.05773735
C        4.29462814       3.10825920      -0.80588341
O        3.86335754       2.12368393      -0.24132347
O        4.18087387       3.40231895      -2.13068771
H        5.57370758       4.56916237      -3.20019913
H        3.93509674       5.22842598      -2.81899071
H        5.01951790       6.03590393      -0.47868538
H        6.43124771       5.06275558      -0.87356758
10
Properties=species:S:1:pos:R:3 name=EC mapped_smiles="[C:1]1([H:7])([H:8])[C:2]([H:9])([H:10])[O:3][C:4](=[O:5])[O:6]1" pbc="F F F"
C        3.53287125       3.45283890       1.73360825
C        2.51743317       4.48056793       1.39361572
O        1.29552078       3.67113113       1.20301437
C        1.59190369       2.37693405       1.37977600
O        0.77056503       1.52407455       1.32160568
O        2.87675285       2.23514175       1.55859756
H        3.79432678       3.52555466       2.82740021
H        4.37093353       3.39481735       1.07355881
H        2.78990364       5.02072906       0.48385239
H        2.34787560       5.26733017       2.04454422
10
Properties=species:S:1:pos:R:3 name=EC mapped_smiles="[C:1]1([H:7])([H:8])[C:2]([H:9])([H:10])[O:3][C:4](=[O:5])[O:6]1" pbc="F F F"
C        6.82283592      -5.17665100      -0.50591850
C        5.70134544      -4.81059074      -1.39341736
O        4.91798973      -3.76505470      -0.69918442
C        5.48435402      -3.55228424       0.42720604
O        5.12586784      -2.73521042       1.19135666
O        6.58603477      -4.35125542       0.63195610
H        7.86342812      -5.16228867      -0.95041084
H        6.78872108      -6.20560074      -0.06525421
H        5.01058769      -5.63386154      -1.61835098
H        6.09343147      -4.42203903      -2.34950256
10
Properties=species:S:1:pos:R:3 name=EC mapped_smiles="[C:1]1([H:7])([H:8])[C:2]([H:9])([H:10])[O:3][C:4](=[O:5])[O:6]1" pbc="F F F"
C       -4.08073044      -2.04401779      -0.15388489
C       -3.55480576      -3.12351990      -1.13166237
O       -4.77899361      -3.94222641      -1.25525284
C       -5.79114342      -3.22246933      -0.74663162
O       -6.94668770      -3.59232712      -0.73059082
O       -5.47317314      -2.09422302      -0.17860985
H       -3.65164566      -1.07310486      -0.39676857
H       -3.72740936      -2.27258301       0.84152603
H       -2.77747345      -3.72085571      -0.61639404
H       -3.18120003      -2.77860260      -2.09647369
10
Properties=species:S:1:pos:R:3 name=EC mapped_smiles="[C:1]1([H:7])([H:8])[C:2]([H:9])([H:10])[O:3][C:4](=[O:5])[O:6]1" pbc="F F F"
C        4.14124680      -5.89375687      -2.47695923
C        2.77159691      -6.46313858      -2.35499954
O        2.83348846      -7.12696457      -1.08602524
C        4.06262970      -7.19197464      -0.58689117
O        4.45647049      -7.88797760       0.34027100
O        4.97605515      -6.48703384      -1.42012787
H        4.05111694      -4.79043961      -2.24907684
H        4.60764885      -6.07798386      -3.48489380
H        2.62847519      -7.28141403      -3.12086105
H        2.02633667      -5.66403580      -2.35307693
10
Properties=species:S:1:pos:R:3 name=EC mapped_smiles="[C:1]1([H:7])([H:8])[C:2]([H:9])([H:10])[O:3][C:4](=[O:5])[O:6]1" pbc="F F F"
C       -4.26373672       7.46157455       0.16075134
C       -5.26341629       7.03551483       1.27136993
O       -4.45706177       5.98918533       1.86445999
C       -3.49448395       5.50274277       1.07228851
O       -2.65800095       4.66019058       1.30191040
O       -3.60906219       6.22644424      -0.07916260
H       -3.53979492       8.25365829       0.37351227
H       -4.71990204       7.73806763      -0.82093430
H       -6.13494873       6.59583664       0.86594391
H       -5.52691650       7.83962631       2.00509262
10
Properties=species:S:1:pos:R:3 name=EC mapped_smiles="[C:1]1([H:7])([H:8])[C:2]([H:9])([H:10])[O:3][C:4](=[O:5])[O:6]1" pbc="F F F"
C        6.00146103      -6.76374054      -1.98915863
C        4.88322067      -7.62134933      -2.40722275
O        4.10644531      -6.68838120      -3.17467117
C        4.35865402      -5.40183640      -2.79814339
O        3.80650711      -4.35314560      -3.12080765
O        5.38460541      -5.46933746      -1.91393089
H        6.83164597      -6.68705750      -2.74354935
H        6.33516312      -6.99176025      -0.91015053
H        4.17826080      -7.92761230      -1.67008781
H        5.19679642      -8.43317413      -3.03171158
10
Properties=species:S:1:pos:R:3 name=EC mapped_smiles="[C:1]1([H:7])([H:8])[C:2]([H:9])([H:10])[O:3][C:4](=[O:5])[O:6]1" pbc="F F F"
C        0.13104057       4.19373703      -9.42886162
C        1.33025932       4.86489487      -8.83008575
O        0.83528519       5.53763580      -7.62437248
C       -0.46416664       5.35741425      -7.51984215
O       -1.15396500       5.87649155      -6.70159340
O       -0.94834137       4.56767273      -8.50916290
H        0.16376114       3.13482285      -9.55832291
H       -0.27076340       4.60998154     -10.39602852
H        1.87215805       5.59410858      -9.48185349
H        2.08042908       4.15868378      -8.48737144
10
Properties=species:S:1:pos:R:3 name=EC mapped_smiles="[C:1]1([H:7])([H:8])[C:2]([H:9])([H:10])[O:3][C:4](=[O:5])[O:6]1" pbc="F F F"
C       -0.11670113       0.44918442       5.33402824
C        0.90441132       1.36453629       4.62521935
O        0.78334808       1.09217453       3.22867775
C       -0.19339561       0.17233658       3.01870537
O       -0.43609810      -0.33742523       1.96658897
O       -0.79173088      -0.23184204       4.22847366
H       -0.80316544       0.90012741       5.99010086
H        0.37528610      -0.39556885       5.88579559
H        1.95867157       1.12650299       4.90949631
H        0.72357559       2.43381882       4.78312683
10
Properties=species:S:1:pos:R:3 name=EC mapped_smiles="[C:1]1([H:7])([H:8])[C:2]([H:9])([H:10])[O:3][C:4](=[O:5])[O:6]1" pbc="F F F"
C       -4.71183014      -0.61466980      -3.47454453
C       -4.37444305      -2.04679871      -3.84271049
O       -3.76207352      -2.59666824      -2.65768623
C       -3.42840195      -1.62680435      -1.79273415
O       -2.79721832      -1.83871269      -0.81364441
O       -3.86316299      -0.44817734      -2.31630325
H       -5.74691963      -0.56527519      -3.19206047
H       -4.47815704       0.09641647      -4.26160240
H       -3.68646240      -2.02891541      -4.68262863
H       -5.23806000      -2.63565445      -3.99738693
10
Properties=species:S:1:pos:R:3 name=EC mapped_smiles="[C:1]1([H:7])([H:8])[C:2]([H:9])([H:10])[O:3][C:4](=[O:5])[O:6]1" pbc="F F F"
C        7.72294235      -1.87066841       3.98444366
C        6.50815964      -2.67229462       3.59491158
O        6.72353745      -3.94218636       4.30108643
C        7.87529755      -3.91244888       4.92019272
O        8.30847549      -4.77992630       5.62780952
O        8.58494568      -2.79956627       4.60028839
H        7.49595261      -1.03619766       4.63554382
H        8.19536209      -1.36477089       3.19191170
H        6.43830109      -2.90781403       2.54888725
H        5.48762131      -2.18504906       3.82672501
10
Properties=species:S:1:pos:R:3 name=EC mapped_smiles="[C:1]1([H:7])([H:8])[C:2]([H:9])([H:10])[O:3][C:4](=[O:5])[O:6]1" pbc="F F F"
C       -4.18444061      -1.80668640       7.90651894
C       -2.75959015      -1.68647194       7.42552185
O       -2.90945053      -1.33281136       5.98932648
C       -4.23451614      -1.18387222       5.68350983
O       -4.52604294      -0.84842300       4.56890297
O       -5.01487350      -1.49246407       6.76871872
H       -4.35124588      -1.20126724       8.85185242
H       -4.45999718      -2.71880150       8.34863281
H       -2.13923073      -2.59255219       7.49721718
H       -2.15405464      -0.94990158       7.98279572
10
Properties=species:S:1:pos:R:3 name=EC mapped_smiles="[C:1]1([H:7])([H:8])[C:2]([H:9])([H:10])[O:3][C:4](=[O:5])[O:6]1" pbc="F F F"
C       -7.96309662      -3.56081200      -4.60839272
C       -8.35071945      -4.09305954      -3.26333046
O       -7.44522095      -3.29960060      -2.38116837
C       -6.44839478      -2.76128960      -3.11021614
O       -5.52514267      -2.24345398      -2.62010956
O       -6.69795227      -2.90165710      -4.45122910
H       -8.63824081      -2.75640488      -5.00588989
H       -7.81678391      -4.37703514      -5.31542969
H       -8.20940781      -5.14636612      -3.21981812
H       -9.47134018      -3.93921852      -3.02639198
10
Properties=species:S:1:pos:R:3 name=EC mapped_smiles="[C:1]1([H:7])([H:8])[C:2]([H:9])([H:10])[O:3][C:4](=[O:5])[O:6]1" pbc="F F F"
C        1.14749336      -8.36386871       1.39101028
C        2.20901871      -7.38012695       0.93950653
O        3.27445984      -7.57461548       1.78376579
C        2.92757797      -8.32809258       2.80673790
O        3.62437439      -8.52072430       3.76539421
O        1.67686462      -8.81986141       2.68026924
H        0.95730591      -9.16487598       0.70962715
H        0.26753426      -7.79562378       1.55372238
H        1.82842064      -6.36770248       1.06633759
H        2.60267639      -7.43046951      -0.08922958
10
Properties=species:S:1:pos:R:3 name=EC mapped_smiles="[C:1]1([H:7])([H:8])[C:2]([H:9])([H:10])[O:3][C:4](=[O:5])[O:6]1" pbc="F F F"
C       -7.78026962       3.55623436       1.29443550
C       -7.58896255       3.14188385      -0.16053391
O       -8.44638824       4.07088470      -0.92775726
C       -9.36848450       4.55485153      -0.08333588
O      -10.30974197       5.23272514      -0.36534500
O       -9.12442398       4.16276360       1.21277237
H       -7.07261276       4.29382324       1.54659462
H       -7.72088242       2.71722031       1.91690254
H       -7.96971893       2.12631416      -0.21370697
H       -6.58858109       3.04283714      -0.57133865
10
Properties=species:S:1:pos:R:3 name=EC mapped_smiles="[C:1]1([H:7])([H:8])[C:2]([H:9])([H:10])[O:3][C:4](=[O:5])[O:6]1" pbc="F F F"
C       -4.66704750       0.06933212       7.65847397
C       -3.35249901       0.89712524       7.64395142
O       -3.08361435       1.00218201       6.23396873
C       -4.03780937       0.28915024       5.46930504
O       -4.04663277       0.13747597       4.27225113
O       -5.03742218      -0.15745926       6.33135986
H       -5.45994949       0.69661713       8.01842499
H       -4.67375565      -0.88385963       8.14936829
H       -2.53345871       0.43830109       8.19421387
H       -3.43758583       1.89139366       7.98647308
10
Properties=species:S:1:pos:R:3 name=EC mapped_smiles="[C:1]1([H:7])([H:8])[C:2]([H:9])([H:10])[O:3][C:4](=[O:5])[O:6]1" pbc="F F F"
C       -3.94067383       0.78131104      -1.86568832
C       -3.42371559       1.74283218      -2.94990921
O       -4.49703979       1.92372894      -3.89291763
C       -5.59418106       1.37709045      -3.34154129
O       -6.68164444       1.39297867      -3.90159988
O       -5.30894852       0.83930969      -2.11890793
H       -3.72671318       1.09794998      -0.81425858
H       -3.58165932      -0.22923279      -1.85142899
H       -2.55945206       1.38071632      -3.44205093
H       -3.12501907       2.76901627      -2.56741714
10
Properties=species:S:1:pos:R:3 name=EC mapped_smiles="[C:1]1([H:7])([H:8])[C:2]([H:9])([H:10])[O:3][C:4](=[O:5])[O:6]1" pbc="F F F"
C       -6.82042694       5.38623428       2.61080933
C       -6.13185120       6.76112938       2.37908936
O       -4.77703094       6.36326599       2.35634232
C       -4.47624969       5.06337166       2.51675415
O       -3.36886215       4.55636787       2.61203003
O       -5.71627808       4.39806175       2.56807327
H       -7.54570007       5.01738739       1.86576462
H       -7.46499252       5.32204056       3.53205109
H       -6.30702591       7.51969719       3.11559677
H       -6.37017822       7.15868950       1.43335342
10
Properties=species:S:1:pos:R:3 name=EC mapped_smiles="[C:1]1([H:7])([H:8])[C:2]([H:9])([H:10])[O:3][C:4](=[O:5])[O:6]1" pbc="F F F"
C        1.32596207      -0.26388550       8.86430740
C        0.24499130      -0.94808197       9.79446030
O       -0.77338409      -1.39775085       8.87977982
C       -0.60523224      -0.86233139       7.66820145
O       -1.39237213      -1.05546570       6.74202347
O        0.51551437      -0.08518600       7.65285110
H        2.22534180      -0.83013916       8.65118408
H        1.59786606       0.74023819       9.19891739
H       -0.22583008      -0.31657410      10.55265045
H        0.60293579      -1.78073502      10.40262222
10
Properties=species:S:1:pos:R:3 name=EC mapped_smiles="[C:1]1([H:7])([H:8])[C:2]([H:9])([H:10])[O:3][C:4](=[O:5])[O:6]1" pbc="F F F"
C       -2.08921814      -2.23963928       3.52155304
C       -1.63742065      -2.51868439       1.99618721
O       -0.68627548      -1.47129440       1.85085869
C       -0.33722305      -1.01622009       3.07917023
O        0.62995148      -0.30307007       3.13895416
O       -1.01350784      -1.46115875       4.03531265
H       -2.26957703      -3.09878540       4.23185349
H       -3.04044342      -1.66779327       3.53290176
H       -2.45434952      -2.40359879       1.25676727
H       -1.18758011      -3.53194427       1.73844719
10
Properties=species:S:1:pos:R:3 name=EC mapped_smiles="[C:1]1([H:7])([H:8])[C:2]([H:9])([H:10])[O:3][C:4](=[O:5])[O:6]1" pbc="F F F"
C        1.99102402       0.66302872       8.89073563
C        2.84649658      -0.40144920       8.18560410
O        2.04436493      -0.56286621       6.91587448
C        0.88523102       0.05476570       7.01420975
O        0.05909348       0.16745758       6.14394951
O        0.74452209       0.68296814       8.18592834
H        2.44845200       1.69028854       8.94102859
H        1.90130234       0.41460037       9.92324066
H        2.94332886      -1.25818253       8.86381912
H        3.81322479      -0.00963402       7.85515022
10
Properties=species:S:1:pos:R:3 name=EC mapped_smiles="[C:1]1([H:7])([H:8])[C:2]([H:9])([H:10])[O:3][C:4](=[O:5])[O:6]1" pbc="F F F"
C       -1.97467804      -2.18350220       4.60684586
C       -3.19212341      -1.28539085       4.24127960
O       -2.80901909      -0.69345093       2.98628235
C       -1.67190170      -1.31676102       2.54830933
O       -1.21878624      -1.03175735       1.48462677
O       -1.36992264      -2.38801575       3.31614494
H       -2.18071938      -3.06260681       5.22776031
H       -1.31594086      -1.64279556       5.31289291
H       -3.41620636      -0.55392456       5.01205444
H       -4.03949928      -1.93521690       3.94969177
10
Properties=species:S:1:pos:R:3 name=EC mapped_smiles="[C:1]1([H:7])([H:8])[C:2]([H:9])([H:10])[O:3][C:4](=[O:5])[O:6]1" pbc="F F F"
C       -2.78062057       5.22831535      -8.50256634
C       -3.81431580       4.94369698      -7.42766571
O       -4.94850731       4.56081963      -8.16190815
C       -4.73475266       4.60036659      -9.50179863
O       -5.57554245       4.28154564     -10.30539131
O       -3.47351265       4.98758507      -9.78617096
H       -1.88174438       4.63390541      -8.47179794
H       -2.37424469       6.21458626      -8.39275360
H       -4.13397217       5.75250816      -6.72311783
H       -3.48099709       4.11122704      -6.77519226
10
Properties=species:S:1:pos:R:3 name=EC mapped_smiles="[C:1]1([H:7])([H:8])[C:2]([H:9])([H:10])[O:3][C:4](=[O:5])[O:6]1" pbc="F F F"
C        7.83348083      -3.05978775       1.33221436
C        6.71628189      -3.86564064       2.07009125
O        5.63744736      -2.93854141       2.06646729
C        6.09319305      -1.69815063       1.88681030
O        5.40284348      -0.74827385       1.93429565
O        7.41680145      -1.70300865       1.56867981
H        7.86651611      -3.21838188       0.30927277
H        8.82551956      -3.18986320       1.69129562
H        6.97049332      -4.10556984       3.09013367
H        6.43871307      -4.75864792       1.51255417
10
Properties=species:S:1:pos:R:3 name=EC mapped_smiles="[C:1]1([H:7])([H:8])[C:2]([H:9])([H:10])[O:3][C:4](=[O:5])[O:6]1" pbc="F F F"
C       -2.23577881       2.12806320      -3.27524948
C       -2.91904068       1.49929810      -4.49557877
O       -3.46979141       2.67003632      -5.08536530
C       -3.67301559       3.63757324      -4.17132950
O       -4.30572701       4.64053345      -4.27202988
O       -3.08081436       3.25274658      -3.04447937
H       -1.29888535       2.61852646      -3.52105713
H       -2.10969925       1.51488876      -2.42542267
H       -3.76391029       0.80031204      -4.27293015
H       -2.18922424       1.09069443      -5.21005249
10
Properties=species:S:1:pos:R:3 name=EC mapped_smiles="[C:1]1([H:7])([H:8])[C:2]([H:9])([H:10])[O:3][C:4](=[O:5])[O:6]1" pbc="F F F"
C       -1.27251053       7.19601059       4.44728851
C       -2.55492592       7.61264229       3.84886742
O       -3.08679390       6.31317329       3.41799927
C       -2.38439560       5.30468559       4.01809311
O       -2.72884941       4.15704536       3.88223648
O       -1.36827660       5.80990410       4.75080490
H       -0.99117279       7.79270363       5.28606033
H       -0.49692154       7.29195404       3.66345406
H       -2.36297798       8.23360062       2.99027443
H       -3.29583168       8.01916313       4.50325775
10
Properties=species:S:1:pos:R:3 name=EC mapped_smiles="[C:1]1([H:7])([H:8])[C:2]([H:9])([H:10])[O:3][C:4](=[O:5])[O:6]1" pbc="F F F"
C       -1.52512741       4.61299133       1.05001640
C       -2.61285782       4.83834076       0.06767654
O       -3.15138626       6.11197662       0.49324036
C       -2.23211288       6.74600220       1.24127960
O       -2.29829025       7.86167145       1.75617218
O       -1.15598297       5.93126297       1.34775352
H       -0.68367386       3.96233749       0.63525200
H       -1.91748810       4.19992447       1.95772743
H       -3.38689804       4.05088043       0.08553505
H       -2.25700760       4.89780426      -0.95571327
10
Properties=species:S:1:pos:R:3 name=EC mapped_smiles="[C:1]1([H:7])([H:8])[C:2]([H:9])([H:10])[O:3][C:4](=[O:5])[O:6]1" pbc="F F F"
C        0.90459442      -3.29669571       1.33485985
C        2.02168274      -3.19552231       0.35609818
O        2.87550354      -2.20356369       0.96301270
C        2.61346054      -2.09311676       2.30169106
O        3.14551926      -1.38158417       3.07969093
O        1.63930130      -2.99794006       2.57627296
H        0.42000580      -4.25416946       1.38022041
H        0.16164780      -2.56383324       1.10694122
H        1.73588753      -2.86234283      -0.56592369
H        2.52449036      -4.13263321       0.19865417
10
Properties=species:S:1:pos:R:3 name=EC mapped_smiles="[C:1]1([H:7])([H:8])[C:2]([H:9])([H:10])[O:3][C:4](=[O:5])[O:6]1" pbc="F F F"
C        5.13341141      -0.72809792       0.12038231
C        4.39048386      -1.99841690       0.02772713
O        3.14356613      -1.53981400       0.35058022
C        3.00678635      -0.15334511       0.16602325
O        1.97018814       0.41560936       0.19287300
O        4.22234344       0.35983276      -0.05348778
H        6.04610062      -0.57226944      -0.50901985
H        5.53597260      -0.67584419       1.12015343
H        4.61597061      -2.74740982       0.70306396
H        4.45597076      -2.42309952      -0.99522018
10
Properties=species:S:1:pos:R:3 name=EC mapped_smiles="[C:1]1([H:7])([H:8])[C:2]([H:9])([H:10])[O:3][C:4](=[O:5])[O:6]1" pbc="F F F"
C        1.20078278      -1.43649101      -4.47826958
C        1.35766983      -2.84531021      -5.05177689
O        1.94595718      -3.62781143      -3.97424698
C        1.76129913      -2.94999123      -2.82918930
O        2.11311722      -3.32173538      -1.73782730
O        1.14990997      -1.78478622      -3.02540779
H        0.30327415      -0.93109512      -4.86279869
H        2.12796974      -0.81863785      -4.55113029
H        1.89138603      -2.90386963      -5.92825699
H        0.37679863      -3.22843933      -5.30385017
10
Properties=species:S:1:pos:R:3 name=EC mapped_smiles="[C:1]1([H:7])([H:8])[C:2]([H:9])([H:10])[O:3][C:4](=[O:5])[O:6]1" pbc="F F F"
C        7.86457062       2.68828201       0.06000900
C        7.98490524       2.18583107      -1.37676239
O        8.13351822       0.81513023      -1.24329376
C        8.12896347       0.44531631       0.06175232
O        8.30569458      -0.65038681       0.50398254
O        7.94985199       1.55695343       0.86088181
H        6.92956161       3.21423721       0.38499832
H        8.57482529       3.43201065       0.43752670
H        8.72329330       2.59047699      -2.01032639
H        7.01635361       2.42634583      -1.84260178
10
Properties=species:S:1:pos:R:3 name=EC mapped_smiles="[C:1]1([H:7])([H:8])[C:2]([H:9])([H:10])[O:3][C:4](=[O:5])[O:6]1" pbc="F F F"
C       -4.71455956      -2.97375107      -0.07494354
C       -5.05047417      -1.55470276      -0.65758324
O       -3.73715019      -0.98490143      -0.87674713
C       -2.76240540      -1.74286270      -0.27655792
O       -1.61019135      -1.42532730      -0.22980499
O       -3.32096672      -2.82263374       0.27937698
H       -4.82023430      -3.70434570      -0.81954956
H       -5.39006233      -3.26701164       0.74792099
H       -5.61330605      -0.91011429       0.08154297
H       -5.71841240      -1.60691833      -1.54548836
10
Properties=species:S:1:pos:R:3 name=EC mapped_smiles="[C:1]1([H:7])([H:8])[C:2]([H:9])([H:10])[O:3][C:4](=[O:5])[O:6]1" pbc="F F F"
C       -4.39756775      -6.79448318      -1.87183571
C       -5.27785492      -5.72848892      -2.60974121
O       -5.18478012      -4.60214615      -1.65690231
C       -4.26889038      -4.96193314      -0.68714905
O       -4.06768417      -4.15435791       0.17773438
O       -3.65676117      -6.14981079      -0.81979370
H       -3.77547073      -7.48432159      -2.42094421
H       -4.99911118      -7.58573532      -1.37402534
H       -6.30757141      -6.02633095      -2.75876236
H       -4.97006226      -5.31514740      -3.59817314
10
Properties=species:S:1:pos:R:3 name=EC mapped_smiles="[C:1]1([H:7])([H:8])[C:2]([H:9])([H:10])[O:3][C:4](=[O:5])[O:6]1" pbc="F F F"
C        1.40565681      -3.38154793      -3.86913681
C        0.12386703      -4.27871895      -3.41119003
O       -0.61609840      -3.38811684      -2.48943710
C       -0.01768875      -2.17158127      -2.36290359
O       -0.36704636      -1.28206253      -1.62950516
O        1.03540611      -2.10082245      -3.22851944
H        1.43012047      -3.20909500      -4.97084427
H        2.34474373      -3.79758835      -3.41632462
H        0.33197594      -5.22917175      -2.95421219
H       -0.64952850      -4.51052475      -4.13370895
10
Properties=species:S:1:pos:R:3 name=EC mapped_smiles="[C:1]1([H:7])([H:8])[C:2]([H:9])([H:10])[O:3][C:4](=[O:5])[O:6]1" pbc="F F F"
C       -4.85846329       0.53256226       8.25778580
C       -4.90809631       2.06730270       8.42081833
O       -4.43380547       2.51316071       7.07194519
C       -4.55590057       1.55448151       6.14902878
O       -4.59918785       1.65061569       4.95487022
O       -4.81809616       0.39738464       6.79997444
H       -5.75799179       0.02202606       8.56478882
H       -4.04263878       0.00420380       8.77447891
H       -4.28447342       2.48572922       9.19544601
H       -5.90923691       2.41876984       8.51871490
10
Properties=species:S:1:pos:R:3 name=EC mapped_smiles="[C:1]1([H:7])([H:8])[C:2]([H:9])([H:10])[O:3][C:4](=[O:5])[O:6]1" pbc="F F F"
C        0.79804420       2.90731049       4.93053055
C        1.67799377       1.63565826       5.13804626
O        2.99764061       1.98574066       4.95477104
C        3.04922485       3.37183762       4.77774048
O        4.05438614       4.03238678       4.48499680
O        1.81073380       4.04309082       4.98926926
H        0.11443710       3.12031174       5.79748917
H        0.31135941       2.94291687       3.96344948
H        1.38371277       0.86970901       4.41364670
H        1.57907867       1.21920013       6.15275955
10
Properties=species:S:1:pos:R:3 name=EC mapped_smiles="[C:1]1([H:7])([H:8])[C:2]([H:9])([H:10])[O:3][C:4](=[O:5])[O:6]1" pbc="F F F"
C        6.52815437      -3.16360664      -2.15193939
C        7.73692131      -2.20203590      -2.17205429
O        8.08138657      -2.38114357      -0.79727173
C        7.04933357      -2.89420128      -0.02253723
O        7.17228127      -2.92663193       1.19786835
O        5.99838829      -3.18867493      -0.78293228
H        6.85280418      -4.18275261      -2.19991302
H        5.81693840      -3.04617119      -3.00621796
H        7.41963387      -1.16802979      -2.27093887
H        8.57315445      -2.47184563      -2.85105133
10
Properties=species:S:1:pos:R:3 name=EC mapped_smiles="[C:1]1([H:7])([H:8])[C:2]([H:9])([H:10])[O:3][C:4](=[O:5])[O:6]1" pbc="F F F"
C       -2.94882584      -6.58407211       3.78657150
C       -3.91820526      -5.60650444       4.42402649
O       -4.31473160      -4.90837860       3.22064590
C       -3.63834000      -5.25186729       2.12638855
O       -3.88499451      -4.68990135       1.06147003
O       -2.69752121      -6.15406990       2.42901230
H       -3.25813675      -7.61252594       3.83758926
H       -2.00231934      -6.56303024       4.29964066
H       -3.45898438      -4.88237381       5.15996552
H       -4.84155655      -6.04648399       4.85815048
