1
Properties=species:S:1:pos:R:3 name=LI mapped_smiles="[Li+:1]" pbc="F F F"
Li       3.39161301      -4.55390167       0.15468407
1
Properties=species:S:1:pos:R:3 name=LI mapped_smiles="[Li+:1]" pbc="F F F"
Li       2.12781906      -1.30012894      -4.87793159
1
Properties=species:S:1:pos:R:3 name=LI mapped_smiles="[Li+:1]" pbc="F F F"
Li       3.29719543       0.54812241       0.83944893
1
Properties=species:S:1:pos:R:3 name=LI mapped_smiles="[Li+:1]" pbc="F F F"
Li       0.00000000       0.00000000       0.00000000
1
Properties=species:S:1:pos:R:3 name=LI mapped_smiles="[Li+:1]" pbc="F F F"
Li       4.89579964      -0.86218643       2.19834709
1
Properties=species:S:1:pos:R:3 name=LI mapped_smiles="[Li+:1]" pbc="F F F"
Li      -1.14087296      -4.99924469       1.59635544
1
Properties=species:S:1:pos:R:3 name=LI mapped_smiles="[Li+:1]" pbc="F F F"
Li       2.29404449      -2.88460159      -3.92950058
1
Properties=species:S:1:pos:R:3 name=LI mapped_smiles="[Li+:1]" pbc="F F F"
Li      -1.42763519       3.23257828       0.82676697
1
Properties=species:S:1:pos:R:3 name=LI mapped_smiles="[Li+:1]" pbc="F F F"
Li       3.13317108      -2.45739746      -2.85319138
1
Properties=species:S:1:pos:R:3 name=LI mapped_smiles="[Li+:1]" pbc="F F F"
Li      -0.02058601       3.43025398      -4.17297745
1
Properties=species:S:1:pos:R:3 name=LI mapped_smiles="[Li+:1]" pbc="F F F"
Li       0.00000000       0.00000000       0.00000000
1
Properties=species:S:1:pos:R:3 name=LI mapped_smiles="[Li+:1]" pbc="F F F"
Li      -2.98360443      -5.01896286      -1.18403435
1
Properties=species:S:1:pos:R:3 name=LI mapped_smiles="[Li+:1]" pbc="F F F"
Li       4.85810471      -0.06915855       1.96500015
1
Properties=species:S:1:pos:R:3 name=LI mapped_smiles="[Li+:1]" pbc="F F F"
Li      -4.58153152      -0.45794296       2.66578484
1
Properties=species:S:1:pos:R:3 name=LI mapped_smiles="[Li+:1]" pbc="F F F"
Li      -4.66552353      -2.64257812      -0.91571999
1
Properties=species:S:1:pos:R:3 name=LI mapped_smiles="[Li+:1]" pbc="F F F"
Li       2.69705582      -3.77075195       2.86094666
1
Properties=species:S:1:pos:R:3 name=LI mapped_smiles="[Li+:1]" pbc="F F F"
Li      -3.06387329       3.08923340      -1.02092552
1
Properties=species:S:1:pos:R:3 name=LI mapped_smiles="[Li+:1]" pbc="F F F"
Li      -4.20228958      -0.52134323       2.22482491
1
Properties=species:S:1:pos:R:3 name=LI mapped_smiles="[Li+:1]" pbc="F F F"
Li      -3.41241074       0.62536812       2.12633514
1
Properties=species:S:1:pos:R:3 name=LI mapped_smiles="[Li+:1]" pbc="F F F"
Li      -1.53749466       4.25526047       1.73272705
1
Properties=species:S:1:pos:R:3 name=LI mapped_smiles="[Li+:1]" pbc="F F F"
Li       2.68373489      -0.63624573       4.36574936
1
Properties=species:S:1:pos:R:3 name=LI mapped_smiles="[Li+:1]" pbc="F F F"
Li       0.00000000       0.00000000       0.00000000
1
Properties=species:S:1:pos:R:3 name=LI mapped_smiles="[Li+:1]" pbc="F F F"
Li      -1.56258392       0.40854645       5.01579285
1
Properties=species:S:1:pos:R:3 name=LI mapped_smiles="[Li+:1]" pbc="F F F"
Li       0.00000000       0.00000000       0.00000000
1
Properties=species:S:1:pos:R:3 name=LI mapped_smiles="[Li+:1]" pbc="F F F"
Li      -0.87257767       2.92855263      -5.06416321
1
Properties=species:S:1:pos:R:3 name=LI mapped_smiles="[Li+:1]" pbc="F F F"
Li       4.29703522       0.91215134       2.08488083
1
Properties=species:S:1:pos:R:3 name=LI mapped_smiles="[Li+:1]" pbc="F F F"
Li       1.97974777       2.89710236      -3.80640411
1
Properties=species:S:1:pos:R:3 name=LI mapped_smiles="[Li+:1]" pbc="F F F"
Li      -3.46757507       2.27723312       3.26406097
1
Properties=species:S:1:pos:R:3 name=LI mapped_smiles="[Li+:1]" pbc="F F F"
Li      -4.88941574       1.40876770       0.89426613
1
Properties=species:S:1:pos:R:3 name=LI mapped_smiles="[Li+:1]" pbc="F F F"
Li       2.54555321       0.16950417       4.25520134
1
Properties=species:S:1:pos:R:3 name=LI mapped_smiles="[Li+:1]" pbc="F F F"
Li       0.00000000       0.00000000       0.00000000
1
Properties=species:S:1:pos:R:3 name=LI mapped_smiles="[Li+:1]" pbc="F F F"
Li       3.11726189      -3.02783203       0.46585464
1
Properties=species:S:1:pos:R:3 name=LI mapped_smiles="[Li+:1]" pbc="F F F"
Li       4.27380753       2.14992332       2.66011429
1
Properties=species:S:1:pos:R:3 name=LI mapped_smiles="[Li+:1]" pbc="F F F"
Li       0.00000000       0.00000000       0.00000000
1
Properties=species:S:1:pos:R:3 name=LI mapped_smiles="[Li+:1]" pbc="F F F"
Li      -2.96809006      -3.80918503       1.85210037
1
Properties=species:S:1:pos:R:3 name=LI mapped_smiles="[Li+:1]" pbc="F F F"
Li       0.00000000       0.00000000       0.00000000
1
Properties=species:S:1:pos:R:3 name=LI mapped_smiles="[Li+:1]" pbc="F F F"
Li      -4.05833626       1.20075989       2.98680496
1
Properties=species:S:1:pos:R:3 name=LI mapped_smiles="[Li+:1]" pbc="F F F"
Li       0.54030228      -1.87795639       4.04200363
1
Properties=species:S:1:pos:R:3 name=LI mapped_smiles="[Li+:1]" pbc="F F F"
Li       3.10602760      -1.23653412       0.26227951
1
Properties=species:S:1:pos:R:3 name=LI mapped_smiles="[Li+:1]" pbc="F F F"
Li      -4.73814774      -3.21029091       0.09582520
