7
Properties=species:S:1:pos:R:3 name=PF6 mapped_smiles="[P-:1]([F:2])([F:3])([F:4])([F:5])([F:6])[F:7]" pbc="F F F"
P        4.20671463      -2.03601265       2.32420349
F        2.97172546      -2.57569313       3.34213638
F        4.29526138      -3.53965759       1.65317726
F        3.17640305      -1.62187004       1.18028259
F        5.40929794      -1.52111053       1.35388374
F        4.06765747      -0.51364326       2.97204971
F        5.34716797      -2.39321899       3.42708397
7
Properties=species:S:1:pos:R:3 name=PF6 mapped_smiles="[P-:1]([F:2])([F:3])([F:4])([F:5])([F:6])[F:7]" pbc="F F F"
P        2.51222992      -4.87767410      -5.36070061
F        2.93787956      -5.41949081      -3.91498375
F        2.64704514      -3.26466751      -4.90703773
F        4.11147881      -5.00242996      -5.85198212
F        2.13464737      -4.32903671      -6.87159729
F        2.23460197      -6.41172409      -5.86373138
F        1.00710869      -4.81073380      -4.88315964
7
Properties=species:S:1:pos:R:3 name=PF6 mapped_smiles="[P-:1]([F:2])([F:3])([F:4])([F:5])([F:6])[F:7]" pbc="F F F"
P        0.00000000       0.00000000       0.00000000
F        0.38448715      -1.30575371       0.82825661
F       -1.51497269      -0.65000153      -0.32198334
F       -0.60181236       0.69800186       1.34508514
F       -0.34570885       1.38285828      -0.79787636
F        1.49707031       0.59184837       0.36276817
F        0.74258423      -0.62954903      -1.32202148
7
Properties=species:S:1:pos:R:3 name=PF6 mapped_smiles="[P-:1]([F:2])([F:3])([F:4])([F:5])([F:6])[F:7]" pbc="F F F"
P       -1.41366196      -1.80892944      -3.75805664
F       -0.27218437      -2.10612869      -2.60434723
F       -0.49780655      -2.70289612      -4.86262894
F       -2.19607544      -3.18717957      -3.36402512
F       -2.47189903      -1.49150085      -4.93505096
F       -2.27771378      -0.97967529      -2.66307449
F       -0.66839600      -0.45626068      -4.23535919
7
Properties=species:S:1:pos:R:3 name=PF6 mapped_smiles="[P-:1]([F:2])([F:3])([F:4])([F:5])([F:6])[F:7]" pbc="F F F"
P        0.00000000       0.00000000       0.00000000
F        0.05223656      -1.64658546       0.00555611
F        1.62950706       0.07176018       0.27466965
F        0.37898827       0.01509476      -1.62833786
F       -0.11663246       1.66968918       0.00409126
F       -1.58214188      -0.10255241      -0.36853409
F       -0.39405060      -0.11275482       1.59621239
7
Properties=species:S:1:pos:R:3 name=PF6 mapped_smiles="[P-:1]([F:2])([F:3])([F:4])([F:5])([F:6])[F:7]" pbc="F F F"
P       -2.99477577      -8.20444298       3.96414185
F       -1.42700577      -8.07393265       3.46123886
F       -2.72330666      -9.75340843       4.45760345
F       -2.48962021      -7.75082970       5.47831345
F       -4.55786896      -8.43979645       4.45041656
F       -3.30287743      -6.59733582       3.62906647
F       -3.38830566      -8.67319679       2.47380829
7
Properties=species:S:1:pos:R:3 name=PF6 mapped_smiles="[P-:1]([F:2])([F:3])([F:4])([F:5])([F:6])[F:7]" pbc="F F F"
P        5.71503067      -1.48255539      -1.07960510
F        5.63995743      -2.93611526      -0.31233597
F        5.47607803      -2.23688126      -2.58291245
F        4.11999512      -1.27400208      -0.97364044
F        5.84206390      -0.11045456      -1.86853790
F        6.01777267      -0.70544434       0.32879257
F        7.32145691      -1.62404251      -1.23292542
7
Properties=species:S:1:pos:R:3 name=PF6 mapped_smiles="[P-:1]([F:2])([F:3])([F:4])([F:5])([F:6])[F:7]" pbc="F F F"
P       -4.43256378       0.89957047       1.58388519
F       -5.80391312       0.12656784       1.92804337
F       -5.10198212       2.36217880       1.95105362
F       -3.98919296       0.79330444       3.17801285
F       -2.99970627       1.60787964       1.20753860
F       -3.75439835      -0.57374954       1.34707260
F       -4.85093689       0.90843201      -0.00098419
7
Properties=species:S:1:pos:R:3 name=PF6 mapped_smiles="[P-:1]([F:2])([F:3])([F:4])([F:5])([F:6])[F:7]" pbc="F F F"
P        6.42660141      -4.63212204      -6.14159012
F        7.02982712      -5.72115326      -7.29065132
F        5.98428345      -3.53325272      -7.28738022
F        4.89361572      -5.29792786      -6.20205688
F        5.94058609      -3.68010712      -4.86805725
F        6.73801041      -5.76857758      -5.01227760
F        7.94195938      -3.93161392      -5.99892426
7
Properties=species:S:1:pos:R:3 name=PF6 mapped_smiles="[P-:1]([F:2])([F:3])([F:4])([F:5])([F:6])[F:7]" pbc="F F F"
P       -0.77318382       6.46977615      -2.32135010
F       -1.83708763       6.50803375      -3.56144714
F        0.35943031       7.20149803      -3.31386566
F       -1.30707932       7.97248268      -1.83638382
F        0.30200577       6.56775665      -1.04290390
F       -1.80720711       5.71889114      -1.30000305
F       -0.19773483       5.06897354      -2.85415649
7
Properties=species:S:1:pos:R:3 name=PF6 mapped_smiles="[P-:1]([F:2])([F:3])([F:4])([F:5])([F:6])[F:7]" pbc="F F F"
P       -1.19527626       2.89679337      -1.44565010
F       -1.64629745       1.57290649      -2.32854271
F       -2.33814621       3.77358627      -2.35347366
F       -2.43997765       2.60793686      -0.43233490
F       -0.84926224       4.25061417      -0.56386948
F       -0.08741760       1.99176025      -0.57967758
F        0.05695534       3.22776794      -2.49916458
7
Properties=species:S:1:pos:R:3 name=PF6 mapped_smiles="[P-:1]([F:2])([F:3])([F:4])([F:5])([F:6])[F:7]" pbc="F F F"
P       -3.80357361       0.82191086       2.04564095
F       -5.42356873       0.63553619       2.12275314
F       -4.11148834       2.44924927       2.28034592
F       -3.69678116       0.59139824       3.66260147
F       -2.19255447       1.10029221       1.96811295
F       -3.58423233      -0.81509781       1.87744904
F       -3.94979858       1.07160950       0.44851685
7
Properties=species:S:1:pos:R:3 name=PF6 mapped_smiles="[P-:1]([F:2])([F:3])([F:4])([F:5])([F:6])[F:7]" pbc="F F F"
P        3.66102219      -3.38126755       0.70473480
F        2.12103271      -2.93178940       0.99528885
F        3.59184647      -4.49085617       1.90908241
F        3.07863998      -4.51681519      -0.36646271
F        5.20551300      -3.85657501       0.43545532
F        3.76111221      -2.25105095      -0.52468491
F        4.12738037      -2.16361618       1.79047203
7
Properties=species:S:1:pos:R:3 name=PF6 mapped_smiles="[P-:1]([F:2])([F:3])([F:4])([F:5])([F:6])[F:7]" pbc="F F F"
P       -6.74745178      -2.85827446       1.38191795
F       -7.89297485      -3.83693504       0.70877266
F       -7.93214035      -1.78343964       1.73127556
F       -6.95883179      -3.58381653       2.81890488
F       -5.56353760      -1.93570709       2.02842903
F       -5.60789680      -3.99143028       0.99730110
F       -6.50246239      -2.17721558      -0.12712479
7
Properties=species:S:1:pos:R:3 name=PF6 mapped_smiles="[P-:1]([F:2])([F:3])([F:4])([F:5])([F:6])[F:7]" pbc="F F F"
P       -4.07082748      -5.91721725      -1.88651276
F       -5.48335266      -5.48333549      -2.54013634
F       -4.27378464      -4.74108124      -0.68815994
F       -4.88724136      -7.08830833      -1.02364349
F       -2.67118835      -6.28263092      -1.18027115
F       -3.68802261      -7.03234863      -3.03013229
F       -3.31985855      -4.77039528      -2.76756287
7
Properties=species:S:1:pos:R:3 name=PF6 mapped_smiles="[P-:1]([F:2])([F:3])([F:4])([F:5])([F:6])[F:7]" pbc="F F F"
P        5.61704636      -1.30624580      -0.94841957
F        5.91106033      -0.58247948      -2.39133072
F        7.12071991      -1.99226189      -1.05622101
F        6.25563812       0.04554367      -0.24183273
F        5.30796814      -1.98684692       0.51675797
F        4.06819916      -0.59336281      -0.94619179
F        4.92717361      -2.53944397      -1.72288132
7
Properties=species:S:1:pos:R:3 name=PF6 mapped_smiles="[P-:1]([F:2])([F:3])([F:4])([F:5])([F:6])[F:7]" pbc="F F F"
P        0.01692581       4.22811890      -1.47394943
F        1.19719696       3.12418556      -1.88652611
F        1.09926224       5.51188469      -1.40704346
F       -0.29948807       4.48185349      -3.13096619
F       -1.15256119       5.27701187      -1.04518318
F       -1.13518906       3.00945854      -1.39332962
F        0.41018295       3.94713211       0.10030746
7
Properties=species:S:1:pos:R:3 name=PF6 mapped_smiles="[P-:1]([F:2])([F:3])([F:4])([F:5])([F:6])[F:7]" pbc="F F F"
P       -7.26760864      -1.96666336       1.19719315
F       -8.26372623      -0.92213821       1.97768784
F       -6.05627251      -1.48285866       2.16543579
F       -7.53684235      -3.17694473       2.32905579
F       -6.14922714      -2.98199272       0.48348808
F       -8.50012493      -2.45736885       0.22381592
F       -6.87706947      -0.75796700       0.14062881
7
Properties=species:S:1:pos:R:3 name=PF6 mapped_smiles="[P-:1]([F:2])([F:3])([F:4])([F:5])([F:6])[F:7]" pbc="F F F"
P        0.00000000       0.00000000       0.00000000
F       -0.31686211      -1.52663422       0.61030197
F        0.95645905       0.37920380       1.25023651
F        1.26696205      -0.67084694      -0.83740616
F        0.30414200       1.44910812      -0.65874100
F       -0.93321228      -0.38575745      -1.32422256
F       -1.29992294       0.67349625       0.78171539
7
Properties=species:S:1:pos:R:3 name=PF6 mapped_smiles="[P-:1]([F:2])([F:3])([F:4])([F:5])([F:6])[F:7]" pbc="F F F"
P       -3.00474930       3.74264145      -1.43196869
F       -2.77844620       5.36395645      -1.84855270
F       -1.92340851       4.08233261      -0.24142838
F       -4.19494629       4.29896164      -0.42359924
F       -3.19072723       2.19519997      -0.92281342
F       -4.11384201       3.48217583      -2.59882736
F       -1.80664062       3.32097435      -2.41298676
7
Properties=species:S:1:pos:R:3 name=PF6 mapped_smiles="[P-:1]([F:2])([F:3])([F:4])([F:5])([F:6])[F:7]" pbc="F F F"
P        6.88016510       2.55678940       5.39802551
F        8.26976395       3.37805939       5.80245018
F        7.17272186       1.46373367       6.55191803
F        6.03874588       3.47577286       6.48960495
F        5.50439072       1.77424622       4.99018478
F        6.65565109       3.70276642       4.23776436
F        7.81193542       1.68280792       4.37258148
7
Properties=species:S:1:pos:R:3 name=PF6 mapped_smiles="[P-:1]([F:2])([F:3])([F:4])([F:5])([F:6])[F:7]" pbc="F F F"
P       -2.15986633      -1.75947189      -2.21844292
F       -0.82283783      -2.41866302      -2.84586906
F       -2.19863129      -0.60318756      -3.30984688
F       -3.05730057      -2.78666687      -3.12036324
F       -3.45440674      -1.08141708      -1.50296402
F       -2.07820892      -2.85182190      -1.04574013
F       -1.23569107      -0.80663300      -1.26958656
7
Properties=species:S:1:pos:R:3 name=PF6 mapped_smiles="[P-:1]([F:2])([F:3])([F:4])([F:5])([F:6])[F:7]" pbc="F F F"
P       -2.10118103       3.97165298       4.55121231
F       -3.23371887       4.19371414       5.70557404
F       -2.59313583       5.41749191       3.99243164
F       -1.04001617       4.80859566       5.52362442
F       -1.00885773       3.70863724       3.33244324
F       -1.65681458       2.58753967       5.28556824
F       -3.26886749       3.22537613       3.78458023
7
Properties=species:S:1:pos:R:3 name=PF6 mapped_smiles="[P-:1]([F:2])([F:3])([F:4])([F:5])([F:6])[F:7]" pbc="F F F"
P        1.13356781      -3.23505783      -1.22109222
F       -0.16113091      -3.81605530      -0.39816475
F        0.22120094      -2.91989899      -2.51369095
F        0.68310547      -1.73716545      -0.73614883
F        2.53529549      -2.61693954      -1.85112381
F        1.98741150      -3.40390015       0.18828011
F        1.54322815      -4.76363754      -1.64982986
7
Properties=species:S:1:pos:R:3 name=PF6 mapped_smiles="[P-:1]([F:2])([F:3])([F:4])([F:5])([F:6])[F:7]" pbc="F F F"
P       -1.98486710       6.32542229      -4.35686493
F       -1.73701859       5.67716789      -2.87274551
F       -3.60505867       6.09529686      -4.24341202
F       -2.10040665       7.84256935      -3.76726723
F       -2.17879868       6.89353752      -5.90077591
F       -0.40877914       6.64747810      -4.54804611
F       -1.67135620       4.81882286      -5.07283974
7
Properties=species:S:1:pos:R:3 name=PF6 mapped_smiles="[P-:1]([F:2])([F:3])([F:4])([F:5])([F:6])[F:7]" pbc="F F F"
P        4.15354156       2.01650620      -0.87087631
F        5.65087891       1.79752350      -1.45823669
F        4.76189041       2.01715851       0.66588593
F        4.32144547       3.69371033      -1.00964737
F        2.69741058       2.22170448      -0.18553543
F        3.52064514       1.95195389      -2.38742065
F        3.94475555       0.38427734      -0.75685883
7
Properties=species:S:1:pos:R:3 name=PF6 mapped_smiles="[P-:1]([F:2])([F:3])([F:4])([F:5])([F:6])[F:7]" pbc="F F F"
P       -0.88132095      -1.57424545      -3.68594742
F        0.06904221      -0.39016342      -3.00610352
F       -1.00677109      -0.64032364      -5.06230927
F        0.44642258      -2.30644989      -4.30205536
F       -1.87692642      -2.68800735      -4.44042587
F       -0.74767303      -2.55134583      -2.35470581
F       -2.16586685      -0.86841965      -2.95347977
7
Properties=species:S:1:pos:R:3 name=PF6 mapped_smiles="[P-:1]([F:2])([F:3])([F:4])([F:5])([F:6])[F:7]" pbc="F F F"
P       -1.51032829       1.80512619       6.77574539
F       -2.88141823       1.43025970       5.94818115
F       -2.01250076       3.32162094       7.15042496
F       -2.10736084       1.26017380       8.19954300
F       -0.13388062       2.18714142       7.58309937
F       -0.89730453       0.30600739       6.39181519
F       -0.83065224       2.36508179       5.39298630
7
Properties=species:S:1:pos:R:3 name=PF6 mapped_smiles="[P-:1]([F:2])([F:3])([F:4])([F:5])([F:6])[F:7]" pbc="F F F"
P       -8.26165771       0.20746231       2.42654610
F       -8.75830460      -0.65364838       1.13256454
F       -9.70671844       1.06399918       2.20459366
F       -8.96747208      -0.86603546       3.42379189
F       -7.91015244       1.20677185       3.66287231
F       -6.89490128      -0.64838028       2.54017639
F       -7.54346085       1.31850815       1.39328957
7
Properties=species:S:1:pos:R:3 name=PF6 mapped_smiles="[P-:1]([F:2])([F:3])([F:4])([F:5])([F:6])[F:7]" pbc="F F F"
P        4.89222717       1.15721512      -0.42562103
F        3.84288025       2.27225494      -0.99590492
F        5.99225998       1.53889084      -1.58191872
F        5.71222496       2.27808762       0.47935867
F        5.94632530       0.00076294       0.10445786
F        3.88202858       0.80227661       0.81487274
F        4.16932297       0.09015274      -1.39272690
7
Properties=species:S:1:pos:R:3 name=PF6 mapped_smiles="[P-:1]([F:2])([F:3])([F:4])([F:5])([F:6])[F:7]" pbc="F F F"
P       -1.10415840       0.42867088       3.12814713
F       -0.66837120      -0.94688225       3.98899078
F       -2.70688438       0.13057137       3.41764832
F       -1.09364319       1.40020752       4.46333122
F       -1.55192375       1.79209709       2.25765038
F        0.47398186       0.77974510       2.90214920
F       -1.13731766      -0.46470070       1.73354149
7
Properties=species:S:1:pos:R:3 name=PF6 mapped_smiles="[P-:1]([F:2])([F:3])([F:4])([F:5])([F:6])[F:7]" pbc="F F F"
P        1.88473129      -4.71912766       3.25592804
F        2.41400146      -4.53462601       1.70067215
F        0.36787796      -4.35136414       2.78493118
F        1.54576683      -6.28037453       2.93030548
F        1.29924202      -4.89480400       4.81515884
F        3.38647652      -5.09322548       3.80295944
F        2.27158737      -3.16904831       3.57343292
7
Properties=species:S:1:pos:R:3 name=PF6 mapped_smiles="[P-:1]([F:2])([F:3])([F:4])([F:5])([F:6])[F:7]" pbc="F F F"
P        1.91522217       1.14506149       4.70692825
F        1.34040833      -0.01162338       5.72957611
F        1.59121704       0.29256248       3.39822769
F        0.46214294       1.89835358       4.63657379
F        2.62866211       2.32913208       3.83592606
F        2.34200668       2.05780411       6.02426910
F        3.38253021       0.44677353       4.73563385
7
Properties=species:S:1:pos:R:3 name=PF6 mapped_smiles="[P-:1]([F:2])([F:3])([F:4])([F:5])([F:6])[F:7]" pbc="F F F"
P       -0.43968964       3.55059433      -0.10853767
F        1.00982666       3.17230988       0.54698944
F       -1.16766739       3.69626617       1.31215668
F       -0.04827118       5.12279510      -0.13803482
F       -1.89805222       3.87506485      -0.74321365
F        0.14775467       3.40382004      -1.59566307
F       -0.88459778       1.95653534      -0.08202553
7
Properties=species:S:1:pos:R:3 name=PF6 mapped_smiles="[P-:1]([F:2])([F:3])([F:4])([F:5])([F:6])[F:7]" pbc="F F F"
P        2.33609200      -4.61552048       0.81882477
F        3.18517876      -3.52133560       1.70569420
F        2.19372749      -3.53185654      -0.41426849
F        3.81257439      -5.01060486       0.20223236
F        1.62558365      -5.78977776      -0.18753624
F        2.44027328      -5.72808838       2.01124763
F        0.95562363      -4.15745544       1.50697517
7
Properties=species:S:1:pos:R:3 name=PF6 mapped_smiles="[P-:1]([F:2])([F:3])([F:4])([F:5])([F:6])[F:7]" pbc="F F F"
P        1.91642380      -4.43331528       0.62302780
F        1.67762375      -3.19963837      -0.49462891
F        2.21755981      -3.37444878       1.81936836
F        0.37014771      -4.43761063       1.07163429
F        2.23220444      -5.66535568       1.66698837
F        1.70337677      -5.53866577      -0.57781219
F        3.53701019      -4.41562843       0.23559761
7
Properties=species:S:1:pos:R:3 name=PF6 mapped_smiles="[P-:1]([F:2])([F:3])([F:4])([F:5])([F:6])[F:7]" pbc="F F F"
P       -7.10362816      -0.40346718       1.54311180
F       -7.99906158      -1.40994263       0.62903976
F       -5.89737892      -1.51859665       1.65946579
F       -6.40101814       0.22975540       0.14781570
F       -6.11106491       0.55667305       2.51406097
F       -8.26079845       0.76109505       1.54296875
F       -7.77944946      -0.94179153       2.95292282
7
Properties=species:S:1:pos:R:3 name=PF6 mapped_smiles="[P-:1]([F:2])([F:3])([F:4])([F:5])([F:6])[F:7]" pbc="F F F"
P       -1.14028740      -5.36936569       5.98596191
F       -0.72915649      -4.23075485       4.88374710
F       -2.28819847      -5.98160553       4.91957474
F        0.03001595      -6.36429596       5.33551407
F       -1.52495193      -6.58805847       7.06792831
F       -0.01664734      -4.78084183       7.04916763
F       -2.25083733      -4.39022827       6.65666008
7
Properties=species:S:1:pos:R:3 name=PF6 mapped_smiles="[P-:1]([F:2])([F:3])([F:4])([F:5])([F:6])[F:7]" pbc="F F F"
P        0.00000000       0.00000000       0.00000000
F        0.17433548      -0.60089684      -1.47860336
F        1.64511681       0.01218987       0.30138016
F        0.06347847       1.54623032      -0.58706665
F       -0.33472443       0.57001305       1.47396469
F       -1.62254524       0.06174469      -0.33842087
F       -0.21951866      -1.55211258       0.61742401
7
Properties=species:S:1:pos:R:3 name=PF6 mapped_smiles="[P-:1]([F:2])([F:3])([F:4])([F:5])([F:6])[F:7]" pbc="F F F"
P       -2.84730148      -3.93564415      -2.75176430
F       -4.17183304      -3.49284172      -1.89794350
F       -2.66044998      -2.38997269      -3.21615601
F       -1.88956833      -3.62975121      -1.43852234
F       -1.58921814      -4.29067039      -3.71444321
F       -3.04817581      -5.44513702      -2.22176170
F       -3.77293777      -4.31953430      -4.04787064
