$molecule
0 1
  C    -2.86658664   -2.27768330   -5.96011738
  C    -2.87628551   -1.09019093   -5.06464390
  Cl   -2.84288974   -1.34833150   -3.31170659
  H    -3.83265491   -2.75298695   -6.07821278
  H    -2.53357883   -2.03264050   -7.02630429
  H    -2.09058948   -3.00578885   -5.56942944
  H    -3.70910640   -0.42264180   -5.34779362
  H    -2.00811382   -0.44334798   -5.36967663
  C    -6.17388348   -3.22543721   -3.81900419
  C    -7.15291791   -4.23568158   -4.40027250
  S    -8.76670079   -3.46010213   -4.67107786
  H    -5.94779973   -2.37189679   -4.47169890
  H    -5.29063611   -3.73294072   -3.49614348
  H    -6.60617642   -2.76190381   -2.98346342
  H    -7.36821561   -4.94459920   -3.64230742
  H    -6.86841588   -4.83383755   -5.26865019
  H    -8.32731061   -2.37867741   -5.05098356
  C    -7.25156798    1.25217815   -2.24425320
  N    -7.92349638    0.04696079   -1.75485806
  O    -8.14246000   -0.86002354   -2.52757458
  O    -8.10071959   -0.03716664   -0.54300122
  H    -6.99406828    1.29638286   -3.30490880
  H    -6.24718107    1.21012874   -1.78158192
  H    -7.82482542    2.16555782   -1.92804150
$end

    $rem
    JOBTYPE                     FORCE
    METHOD                      B3LYP
    BASIS                       def2-SVPD
    XC_GRID                     000099000590
    NL_GRID                     000050000194
    MAX_SCF_CYCLES              100
    SCF_CONVERGENCE             8
    THRESH                      13
    BASIS_LIN_DEP_THRESH        13
    INCDFT_DENDIFF_THRESH       14
    INCDFT_GRIDDIFF_THRESH      14
    MEM_STATIC                  8000
    MEM_TOTAL                   80000
    SYMMETRY                    FALSE
    SYM_IGNORE                  TRUE
    !LOWDIN_POPULATION           TRUE
    CHELPG                      TRUE
    !ESP_CHARGES                 1
    RESP_CHARGES                1
    !HIRSHFELD                   TRUE
    !CM5                         TRUE
    DFT_D D3_BJ
AUX_BASIS                   RIJK-def2-qzvpp
    occ_ri_k                    TRUE
    ri_k_grad                   TRUE
        $end

$archive
enable_archive = True !Turns on generation of Archive
$end

