$molecule
0 1
  N    -2.81756193   -3.09072286    0.90986842
  C    -4.13814718   -3.43819410    1.16921633
  C    -4.71345502   -3.25769788    2.40107363
  C    -6.07131177   -3.69965917    2.67203158
  C    -6.77445966   -4.28139287    1.63816279
  C    -6.22318822   -4.24318487    0.40710848
  C    -4.89096624   -3.95140821    0.19468897
  H    -2.58322317   -3.53734952   -0.00874692
  H    -2.48041326   -2.15323430    1.15123576
  H    -4.11664182   -2.64619619    3.06306284
  H    -6.46180898   -3.59595663    3.61844081
  H    -7.84099752   -4.67275220    1.73560923
  H    -6.75432760   -4.68000585   -0.40306837
  H    -4.52738935   -4.07551366   -0.81596357
  N    -2.25661260   -1.92255956    4.24203926
  C    -1.41737539   -3.04020673    4.24954658
  C    -0.53960401   -3.35008031    3.20403724
  C     0.34852809   -4.35791761    3.37727028
  C     0.43660754   -5.10439283    4.58397346
  C    -0.58294851   -4.88682538    5.53532844
  C    -1.50254423   -3.85225088    5.39237648
  H    -2.69997961   -1.60867673    5.13050514
  H    -1.75701314   -1.18033582    3.75695472
  H    -0.23494512   -2.68291265    2.38813453
  H     1.16964167   -4.56774312    2.70879799
  H     1.19340342   -5.86527425    4.63622718
  H    -0.54240018   -5.40329153    6.54542213
  H    -2.13740331   -3.53592855    6.23147255
  C    -6.34774953   -2.92256338    7.57626707
  N    -4.94341833   -2.66488439    6.91979963
  O    -4.15656835   -1.72123319    7.32597143
  O    -4.70735151   -3.46197301    6.00736982
  H    -6.36627180   -2.75452596    8.64311391
  H    -6.63894826   -3.97061712    7.42480833
  H    -7.15954000   -2.38868886    7.09238035
$end

    $rem
    JOBTYPE                     FORCE
    METHOD                      B3LYP
    BASIS                       def2-SVPD
    XC_GRID                     000099000590
    NL_GRID                     000050000194
    MAX_SCF_CYCLES              100
    SCF_CONVERGENCE             8
    THRESH                      13
    BASIS_LIN_DEP_THRESH        13
    INCDFT_DENDIFF_THRESH       14
    INCDFT_GRIDDIFF_THRESH      14
    MEM_STATIC                  8000
    MEM_TOTAL                   80000
    SYMMETRY                    FALSE
    SYM_IGNORE                  TRUE
    !LOWDIN_POPULATION           TRUE
    CHELPG                      TRUE
    !ESP_CHARGES                 1
    RESP_CHARGES                1
    !HIRSHFELD                   TRUE
    !CM5                         TRUE
    DFT_D D3_BJ
AUX_BASIS                   RIJK-def2-qzvpp
    occ_ri_k                    TRUE
    ri_k_grad                   TRUE
        $end

$archive
enable_archive = True !Turns on generation of Archive
$end

