10
Properties=species:S:1:pos:R:3 name=ACE mapped_smiles="[C:1]([C:2]([C:3]([H:8])([H:9])[H:10])=[O:4])([H:5])([H:6])[H:7]" pbc="F F F"
C       -0.50955772       7.86966515       2.72997284
C       -0.53518677       6.47375488       2.22658157
C       -1.32214546       5.40079498       2.98986435
O       -0.03941154       6.10172653       1.17543221
H        0.06608582       8.52550316       2.13302994
H       -0.04359627       7.93387413       3.73130989
H       -1.52380562       8.28014183       2.89449501
H       -1.42621422       5.72513580       4.03628349
H       -0.89120293       4.42258072       2.97604370
H       -2.34144974       5.32990265       2.53291130
10
Properties=species:S:1:pos:R:3 name=ACE mapped_smiles="[C:1]([C:2]([C:3]([H:8])([H:9])[H:10])=[O:4])([H:5])([H:6])[H:7]" pbc="F F F"
C       -0.21720123       4.40768814      -3.68496323
C        0.55879402       5.10561752      -2.57404900
C        0.36556053       6.52701950      -2.49050140
O        1.13857651       4.44198227      -1.70044327
H       -0.40644073       5.07739258      -4.51469803
H       -1.05192566       3.90296555      -3.27176666
H        0.37781525       3.67990875      -4.18934631
H        1.24573517       7.03680801      -2.05875969
H       -0.41910362       6.75328445      -1.74115562
H        0.04730415       7.05302048      -3.38113022
10
Properties=species:S:1:pos:R:3 name=ACE mapped_smiles="[C:1]([C:2]([C:3]([H:8])([H:9])[H:10])=[O:4])([H:5])([H:6])[H:7]" pbc="F F F"
C        2.97446251       3.97157288      -3.85459709
C        3.75400734       4.65347672      -5.01204300
C        5.14671898       4.17071724      -5.26047897
O        3.16215706       5.50281143      -5.67333031
H        3.51618767       4.09471321      -2.86179543
H        2.87830734       2.84993553      -4.06607246
H        1.96922493       4.44975281      -3.81662941
H        5.26382637       4.01973724      -6.35010910
H        5.40070915       3.22997856      -4.75688744
H        5.92151070       4.87624931      -5.06879425
10
Properties=species:S:1:pos:R:3 name=ACE mapped_smiles="[C:1]([C:2]([C:3]([H:8])([H:9])[H:10])=[O:4])([H:5])([H:6])[H:7]" pbc="F F F"
C        0.00000000       0.00000000       0.00000000
C        0.72780609      -1.35948372      -0.32091904
C        2.09674072      -1.58034325       0.15615463
O        0.14796066      -2.29849815      -0.87033844
H        0.46434021       0.82321739      -0.48300171
H        0.19791412       0.22297668       1.01188278
H       -1.05558014      -0.02511024      -0.28194046
H        2.83139801      -1.19822502      -0.53630829
H        2.28300476      -2.60455704       0.41200256
H        2.13317871      -0.96653175       1.13872528
10
Properties=species:S:1:pos:R:3 name=ACE mapped_smiles="[C:1]([C:2]([C:3]([H:8])([H:9])[H:10])=[O:4])([H:5])([H:6])[H:7]" pbc="F F F"
C        4.45861626      -6.04936600      -1.30723190
C        3.60846138      -5.09798431      -2.27618980
C        2.12871742      -5.06435394      -2.18359184
O        4.20757103      -4.41791916      -3.08658600
H        4.85957909      -5.44858170      -0.46061516
H        5.32353401      -6.52935791      -1.83962822
H        3.79470253      -6.74205399      -0.84698868
H        1.78634071      -6.05607224      -1.87044525
H        1.64701653      -4.70887375      -3.12446404
H        1.80455971      -4.46591187      -1.35857773
10
Properties=species:S:1:pos:R:3 name=ACE mapped_smiles="[C:1]([C:2]([C:3]([H:8])([H:9])[H:10])=[O:4])([H:5])([H:6])[H:7]" pbc="F F F"
C        5.66861725      -4.17000580      -1.88168144
C        4.79446793      -3.46401596      -2.85362625
C        4.74389267      -1.93529510      -2.69062424
O        4.27765656      -4.09256363      -3.77687645
H        5.55731583      -3.72239685      -0.89592743
H        6.70052719      -3.91234970      -2.19536591
H        5.46417618      -5.28573990      -1.97392845
H        5.72838593      -1.47094727      -2.83755493
H        4.37608337      -1.69423294      -1.65441895
H        4.10043716      -1.60569763      -3.47584534
10
Properties=species:S:1:pos:R:3 name=ACE mapped_smiles="[C:1]([C:2]([C:3]([H:8])([H:9])[H:10])=[O:4])([H:5])([H:6])[H:7]" pbc="F F F"
C        0.00000000       0.00000000       0.00000000
C       -0.43182755       1.45095825       0.16977310
C       -0.97484207       1.92029953       1.56278992
O       -0.37308502       2.27740669      -0.76840591
H        1.02933502      -0.05141258      -0.34855652
H       -0.53107452      -0.43443871      -0.84569931
H       -0.11949539      -0.59230614       0.91055679
H       -0.31788254       2.70128822       1.99005508
H       -0.98969269       1.14789391       2.35828400
H       -1.97328949       2.46343613       1.42999649
10
Properties=species:S:1:pos:R:3 name=ACE mapped_smiles="[C:1]([C:2]([C:3]([H:8])([H:9])[H:10])=[O:4])([H:5])([H:6])[H:7]" pbc="F F F"
C        0.00000000       0.00000000       0.00000000
C       -0.04808807       0.12144470       1.46784973
C       -0.79051971       1.30486679       1.96025848
O        0.44730377      -0.65824127       2.25364685
H       -0.92366791       0.47302628      -0.33337402
H       -0.03780365      -1.03298569      -0.28481293
H        0.84734344       0.50035477      -0.47986984
H       -0.47673035       2.20869827       1.43792725
H       -0.60955048       1.55524826       3.00507355
H       -1.94136047       1.16707993       1.86900330
10
Properties=species:S:1:pos:R:3 name=ACE mapped_smiles="[C:1]([C:2]([C:3]([H:8])([H:9])[H:10])=[O:4])([H:5])([H:6])[H:7]" pbc="F F F"
C       -0.06908417      -4.24957085      -0.43310165
C       -0.27116776      -4.65597534       0.94042969
C        0.31386948      -3.79081726       2.04079437
O       -0.80120087      -5.72838020       1.22314835
H       -0.77975464      -3.66004372      -0.88953781
H       -0.04841995      -5.12691116      -1.06468582
H        0.82445145      -3.72845268      -0.51768112
H        1.22699356      -4.26191902       2.35334015
H       -0.36343384      -3.77214622       2.90163803
H        0.65972137      -2.75916100       1.81349564
10
Properties=species:S:1:pos:R:3 name=ACE mapped_smiles="[C:1]([C:2]([C:3]([H:8])([H:9])[H:10])=[O:4])([H:5])([H:6])[H:7]" pbc="F F F"
C        0.51272583       5.28321075       1.21237564
C        1.33026505       6.00147629       2.25250244
C        0.69488907       7.06188583       3.08089066
O        2.55816269       5.81664658       2.35649490
H        0.91975784       4.25773239       1.04907608
H        0.62255478       5.81511688       0.29022980
H       -0.54035187       5.25310898       1.45125198
H        1.33224869       7.62357140       3.85821915
H       -0.20402908       6.68714142       3.55508041
H        0.18505478       7.76141167       2.42000198
10
Properties=species:S:1:pos:R:3 name=ACE mapped_smiles="[C:1]([C:2]([C:3]([H:8])([H:9])[H:10])=[O:4])([H:5])([H:6])[H:7]" pbc="F F F"
C        0.00000000       0.00000000       0.00000000
C        0.10463715       1.29190636      -0.78773689
C        1.22853470       2.18482971      -0.41215515
O       -0.65676117       1.50914764      -1.70071983
H        0.58237076      -0.72295189      -0.50208282
H       -0.98808289      -0.44496727       0.00937271
H        0.33108521      -0.01612663       0.98036575
H        1.56554794       2.07542229       0.58895111
H        1.04029846       3.26247978      -0.72526169
H        2.08851624       1.82584381      -0.96269798
10
Properties=species:S:1:pos:R:3 name=ACE mapped_smiles="[C:1]([C:2]([C:3]([H:8])([H:9])[H:10])=[O:4])([H:5])([H:6])[H:7]" pbc="F F F"
C       -7.17580795       4.11684418       1.54512787
C       -7.35203171       2.66430664       1.96388245
C       -7.57313156       1.70497894       0.80560303
O       -7.38279343       2.38735199       3.14300537
H       -6.32998276       4.33122635       0.79727173
H       -6.91814804       4.68733215       2.41431427
H       -8.10297012       4.52940750       1.15612793
H       -8.62452316       1.29415512       0.80091095
H       -6.79979324       0.94547653       0.88876343
H       -7.49818039       2.32605362      -0.08630371
10
Properties=species:S:1:pos:R:3 name=ACE mapped_smiles="[C:1]([C:2]([C:3]([H:8])([H:9])[H:10])=[O:4])([H:5])([H:6])[H:7]" pbc="F F F"
C        0.00000000       0.00000000       0.00000000
C        1.15683556      -0.28746796      -0.84231186
C        2.04212570      -1.50855637      -0.43830872
O        1.43619728       0.26504135      -1.87415695
H       -0.75788116       0.59271622      -0.57400513
H        0.22688484       0.60213852       0.88029861
H       -0.43480301      -0.92165375       0.33065796
H        2.58313751      -1.23029709       0.44348907
H        2.73601532      -1.72135544      -1.16635513
H        1.32078552      -2.25875854      -0.12551498
10
Properties=species:S:1:pos:R:3 name=ACE mapped_smiles="[C:1]([C:2]([C:3]([H:8])([H:9])[H:10])=[O:4])([H:5])([H:6])[H:7]" pbc="F F F"
C        4.81842804      -1.97576332      -2.84145355
C        3.92218399      -1.22914696      -3.70198441
C        2.46828842      -1.75348473      -3.86141205
O        4.29159164      -0.16222000      -4.20938492
H        4.47472763      -2.98524666      -2.58852768
H        4.91339493      -1.61234474      -1.78848648
H        5.84299850      -1.97818375      -3.17780685
H        2.45135880      -2.44703484      -4.72601318
H        1.86865234      -0.85415840      -4.14399719
H        2.02532196      -2.22973061      -3.00936127
10
Properties=species:S:1:pos:R:3 name=ACE mapped_smiles="[C:1]([C:2]([C:3]([H:8])([H:9])[H:10])=[O:4])([H:5])([H:6])[H:7]" pbc="F F F"
C        0.84996796       3.03445816       4.74935913
C        0.02737808       3.44070625       6.04426956
C        0.71120453       4.41222191       6.90282822
O       -1.10551834       3.08489227       6.27307892
H        0.97624207       3.95330048       4.14721298
H        0.42090988       2.25319099       4.03194618
H        1.88326263       2.79872322       5.09739685
H        1.39690399       5.03344536       6.29074478
H        1.31900787       3.95460129       7.70938683
H       -0.09744263       4.92037582       7.50729942
10
Properties=species:S:1:pos:R:3 name=ACE mapped_smiles="[C:1]([C:2]([C:3]([H:8])([H:9])[H:10])=[O:4])([H:5])([H:6])[H:7]" pbc="F F F"
C       -6.62269020      -0.32233810      -0.31979179
C       -6.25050926      -0.46186066      -1.73489189
C       -7.51209450      -0.55148697      -2.67829323
O       -5.11134911      -0.51861954      -2.20303154
H       -5.83566666       0.23175812       0.19918251
H       -6.64838982      -1.35775757       0.05348778
H       -7.53486443       0.18450546      -0.03743935
H       -7.37747192      -1.37261200      -3.38224983
H       -7.67904472       0.37458420      -3.23072624
H       -8.37474251      -0.80375671      -2.06715584
10
Properties=species:S:1:pos:R:3 name=ACE mapped_smiles="[C:1]([C:2]([C:3]([H:8])([H:9])[H:10])=[O:4])([H:5])([H:6])[H:7]" pbc="F F F"
C        1.03549004      -6.35409546      -0.50544357
C       -0.41549873      -5.93983459      -0.74812508
C       -0.63531303      -4.44956017      -0.55355644
O       -1.28765678      -6.70529366      -1.04850960
H        1.64266777      -5.66686440      -1.11510849
H        1.25121880      -7.34653854      -0.81492615
H        1.32554436      -6.37052917       0.57890320
H        0.27432442      -3.99593735      -0.12878799
H       -1.54969978      -4.31387329       0.08406639
H       -0.86667442      -3.98898125      -1.55366135
10
Properties=species:S:1:pos:R:3 name=ACE mapped_smiles="[C:1]([C:2]([C:3]([H:8])([H:9])[H:10])=[O:4])([H:5])([H:6])[H:7]" pbc="F F F"
C       -1.24560165       0.46429825       7.50480461
C       -1.26106644       1.74105453       6.74039078
C       -1.08822632       1.71900940       5.20012093
O       -1.61758804       2.77786636       7.24049187
H       -1.20175934       0.69623566       8.59013176
H       -0.34668732      -0.13779068       7.31858635
H       -2.12601089      -0.10916519       7.30530357
H       -1.10689926       2.78658676       4.75631523
H       -1.86525726       0.98530579       4.95212746
H       -0.17878723       1.10205460       4.90926933
10
Properties=species:S:1:pos:R:3 name=ACE mapped_smiles="[C:1]([C:2]([C:3]([H:8])([H:9])[H:10])=[O:4])([H:5])([H:6])[H:7]" pbc="F F F"
C       -3.12967682       0.46202660      -2.18361473
C       -3.23656845       1.65743828      -1.20208549
C       -4.07725716       1.37487984      -0.02037430
O       -2.64311981       2.69856453      -1.43997765
H       -4.07130241      -0.18311119      -2.21558952
H       -2.25349808      -0.18262672      -1.94920921
H       -2.88188553       0.78199577      -3.16833305
H       -5.08056259       1.07852364      -0.35583305
H       -4.13960838       2.27149963       0.53442764
H       -3.62114334       0.71102333       0.79676819
10
Properties=species:S:1:pos:R:3 name=ACE mapped_smiles="[C:1]([C:2]([C:3]([H:8])([H:9])[H:10])=[O:4])([H:5])([H:6])[H:7]" pbc="F F F"
C       -1.60456657      -1.09815407       3.97154617
C       -1.89439583       0.11697006       4.90692711
C       -1.66520119      -0.22438240       6.41553688
O       -2.24806404       1.20225525       4.53340721
H       -1.26816177      -1.93112373       4.51845360
H       -0.83923531      -0.84796333       3.20701790
H       -2.47954941      -1.41152000       3.41141891
H       -2.40170860      -0.86807442       6.82490730
H       -1.62084198       0.67133141       7.05973244
H       -0.64518929      -0.62878990       6.45764542
10
Properties=species:S:1:pos:R:3 name=ACE mapped_smiles="[C:1]([C:2]([C:3]([H:8])([H:9])[H:10])=[O:4])([H:5])([H:6])[H:7]" pbc="F F F"
C        2.15150070      -2.57731628      -2.60868454
C        3.12939072      -2.04730988      -1.60563660
C        3.73160553      -0.71049118      -1.99031830
O        3.23559380      -2.54772949      -0.48973083
H        1.12808037      -2.15947723      -2.50919342
H        1.99605370      -3.67114639      -2.38110352
H        2.50456810      -2.49880600      -3.53608704
H        2.93235397       0.00194550      -1.80905533
H        3.97085190      -0.71485901      -3.06280899
H        4.59738922      -0.54936981      -1.41266632
10
Properties=species:S:1:pos:R:3 name=ACE mapped_smiles="[C:1]([C:2]([C:3]([H:8])([H:9])[H:10])=[O:4])([H:5])([H:6])[H:7]" pbc="F F F"
C        0.00000000       0.00000000       0.00000000
C        1.01359558      -0.94048309       0.57981682
C        2.22538757      -0.21692657       1.24719429
O        0.87950897      -2.14505005       0.44892120
H       -0.41333771       0.50041962       0.85493469
H       -0.82912445      -0.49728394      -0.52838516
H        0.55812836       0.66302490      -0.58933067
H        2.18544769       0.85583496       1.17484093
H        3.16767883      -0.60318756       0.87129021
H        2.22242737      -0.46900940       2.31766891
10
Properties=species:S:1:pos:R:3 name=ACE mapped_smiles="[C:1]([C:2]([C:3]([H:8])([H:9])[H:10])=[O:4])([H:5])([H:6])[H:7]" pbc="F F F"
C        1.80691910      -2.84412384       3.50757599
C        2.68395233      -2.66345596       4.70605469
C        2.43050003      -3.65175247       5.76409149
O        3.55022049      -1.80678558       4.87644577
H        2.23260117      -3.52654648       2.78808594
H        1.52489853      -1.84191513       3.08214569
H        0.82704926      -3.25269318       3.77244568
H        1.45950317      -4.12046051       5.62657928
H        2.43554306      -3.11000443       6.68738556
H        3.22500229      -4.39337921       5.76512909
10
Properties=species:S:1:pos:R:3 name=ACE mapped_smiles="[C:1]([C:2]([C:3]([H:8])([H:9])[H:10])=[O:4])([H:5])([H:6])[H:7]" pbc="F F F"
C       -5.11268997       1.38083649       4.50680923
C       -6.36137772       1.26285553       3.65508652
C       -7.53082275       2.18097687       4.03635025
O       -6.31431198       0.57694244       2.64301682
H       -4.38381958       2.16558838       4.22468185
H       -4.55295563       0.46542358       4.47888565
H       -5.42128754       1.56053925       5.53316116
H       -7.10137939       3.07621002       4.49071121
H       -8.22142410       1.59796143       4.61503983
H       -8.05356216       2.47109985       3.13039780
10
Properties=species:S:1:pos:R:3 name=ACE mapped_smiles="[C:1]([C:2]([C:3]([H:8])([H:9])[H:10])=[O:4])([H:5])([H:6])[H:7]" pbc="F F F"
C        0.00000000       0.00000000       0.00000000
C       -1.45522690       0.02641678      -0.49872971
C       -2.22837448      -1.19452667      -0.11681366
O       -1.91691971       0.97647476      -1.03784180
H        0.22373199       0.83597946       0.66540909
H        0.66508865       0.10120010      -0.82864380
H        0.15407562      -0.87973785       0.70662689
H       -2.91397858      -1.44608688      -1.00777817
H       -2.95441818      -0.84109497       0.58462524
H       -1.67661285      -2.10927200       0.16074753
10
Properties=species:S:1:pos:R:3 name=ACE mapped_smiles="[C:1]([C:2]([C:3]([H:8])([H:9])[H:10])=[O:4])([H:5])([H:6])[H:7]" pbc="F F F"
C        0.11148071       6.79175949      -2.76609993
C       -0.41320038       5.69217300      -3.67868233
C        0.43714905       4.50392914      -4.02297211
O       -1.49814987       5.78236389      -4.20940018
H        0.84820938       6.36371994      -2.03786659
H       -0.71240234       7.23016167      -2.28038597
H        0.58516312       7.54414177      -3.42419052
H        0.51261902       3.94391632      -3.08692360
H        1.47542572       4.78303528      -4.32572365
H       -0.03544617       3.70218658      -4.67088509
10
Properties=species:S:1:pos:R:3 name=ACE mapped_smiles="[C:1]([C:2]([C:3]([H:8])([H:9])[H:10])=[O:4])([H:5])([H:6])[H:7]" pbc="F F F"
C        6.89668083      -4.21148300       1.69815063
C        6.38777733      -3.43063354       0.45608521
C        6.99863243      -2.08197784       0.18211365
O        5.55021095      -3.92245483      -0.30252838
H        7.23491478      -3.52027512       2.46385956
H        7.70698357      -4.82662964       1.45478058
H        6.18479538      -4.92157745       2.05993652
H        6.18897057      -1.30612183       0.16287994
H        7.53618431      -2.05165482      -0.75401306
H        7.68422508      -1.84877396       0.97256470
10
Properties=species:S:1:pos:R:3 name=ACE mapped_smiles="[C:1]([C:2]([C:3]([H:8])([H:9])[H:10])=[O:4])([H:5])([H:6])[H:7]" pbc="F F F"
C        5.44493103      -4.73115349       1.23070335
C        6.43515396      -5.81491661       1.57776451
C        7.12072754      -5.71049690       2.92365074
O        6.83043671      -6.62550545       0.71105766
H        6.08733749      -3.95566750       0.78122902
H        4.97611237      -4.29950333       2.05948257
H        4.70253372      -5.06882668       0.54329109
H        7.56882286      -6.70351982       3.21640205
H        6.45747375      -5.41332054       3.78042412
H        7.89782524      -4.96778679       2.96630287
10
Properties=species:S:1:pos:R:3 name=ACE mapped_smiles="[C:1]([C:2]([C:3]([H:8])([H:9])[H:10])=[O:4])([H:5])([H:6])[H:7]" pbc="F F F"
C       -5.64234543      -3.87689018       1.80958748
C       -6.09595871      -4.75928497       0.73232079
C       -7.37683487      -4.38204956       0.11981773
O       -5.47308350      -5.73373795       0.27348900
H       -4.78466797      -3.34016037       1.39668465
H       -5.22558594      -4.53129959       2.56426811
H       -6.49822235      -3.28032303       2.17443657
H       -8.14555359      -4.28688812       0.84831810
H       -7.64215851      -5.16629791      -0.55801582
H       -7.24538803      -3.46416664      -0.44962502
10
Properties=species:S:1:pos:R:3 name=ACE mapped_smiles="[C:1]([C:2]([C:3]([H:8])([H:9])[H:10])=[O:4])([H:5])([H:6])[H:7]" pbc="F F F"
C       -9.03888321      -2.65099907      -7.65237808
C       -7.75648117      -1.89669228      -7.50525665
C       -7.77935219      -0.75145912      -6.67532539
O       -6.77182579      -2.19408226      -8.19058037
H       -8.96267891      -3.62996101      -7.04067230
H       -9.30501938      -2.96759605      -8.72005653
H       -9.96781540      -2.12385750      -7.32037735
H       -8.40041733       0.07533455      -7.08114243
H       -6.78684044      -0.32585335      -6.44604301
H       -8.25394058      -0.96919823      -5.68978882
10
Properties=species:S:1:pos:R:3 name=ACE mapped_smiles="[C:1]([C:2]([C:3]([H:8])([H:9])[H:10])=[O:4])([H:5])([H:6])[H:7]" pbc="F F F"
C       -1.60076332      -5.43355370       1.78590775
C       -2.89784050      -4.60924339       1.90130043
C       -3.02789688      -3.80508232       3.11298943
O       -3.73682976      -4.61918831       1.00269890
H       -0.73170280      -4.77061272       2.10047531
H       -1.44361687      -5.80004692       0.81519508
H       -1.60749435      -6.24848747       2.53126907
H       -2.20087242      -3.94300652       3.78999519
H       -4.02460670      -4.00329399       3.63612747
H       -3.14122772      -2.76648140       2.90183449
10
Properties=species:S:1:pos:R:3 name=ACE mapped_smiles="[C:1]([C:2]([C:3]([H:8])([H:9])[H:10])=[O:4])([H:5])([H:6])[H:7]" pbc="F F F"
C        0.00000000       0.00000000       0.00000000
C        0.64967346      -1.34783173      -0.45352173
C        1.26363373      -2.15439224       0.61556244
O        0.83815002      -1.59287643      -1.61677170
H       -0.37807083       0.00812531       1.04587555
H       -0.82392120       0.22824097      -0.65803909
H        0.75671387       0.79647446      -0.14159012
H        0.87024689      -1.85126114       1.55913544
H        2.34145355      -1.95556259       0.53075027
H        1.05361938      -3.22771072       0.47227478
10
Properties=species:S:1:pos:R:3 name=ACE mapped_smiles="[C:1]([C:2]([C:3]([H:8])([H:9])[H:10])=[O:4])([H:5])([H:6])[H:7]" pbc="F F F"
C       -3.66178703       5.21662521      -2.57402611
C       -2.46230125       4.29863358      -2.67671013
C       -1.73345757       4.09478760      -1.36857414
O       -2.17979622       3.74623489      -3.71260643
H       -3.74036789       5.77364349      -3.50456047
H       -3.55096626       5.89925385      -1.70359612
H       -4.63009834       4.80328751      -2.60133171
H       -1.17679787       4.98738480      -1.08791161
H       -0.99011230       3.23305893      -1.52194786
H       -2.50757408       3.85454178      -0.67042351
10
Properties=species:S:1:pos:R:3 name=ACE mapped_smiles="[C:1]([C:2]([C:3]([H:8])([H:9])[H:10])=[O:4])([H:5])([H:6])[H:7]" pbc="F F F"
C       -1.31736374      -3.58780670       0.54400635
C       -2.33934212      -4.67205048       0.64773750
C       -1.86057281      -6.13328171       0.43679810
O       -3.58731461      -4.50898361       0.83386993
H       -1.73726654      -2.60691452       0.36193657
H       -0.63130188      -3.72148514      -0.26372719
H       -0.61415863      -3.53170395       1.40912056
H       -0.78332901      -6.27347946       0.52074623
H       -2.05702209      -6.36299515      -0.62167549
H       -2.53787422      -6.85302353       0.93987083
10
Properties=species:S:1:pos:R:3 name=ACE mapped_smiles="[C:1]([C:2]([C:3]([H:8])([H:9])[H:10])=[O:4])([H:5])([H:6])[H:7]" pbc="F F F"
C       -3.25814056      -2.71051979       2.62450409
C       -2.75243950      -1.97280312       1.46306229
C       -3.37688446      -0.61903572       1.16793060
O       -1.72622299      -2.33637810       0.94834137
H       -4.19483757      -2.23135185       2.99909592
H       -2.46096992      -2.89258766       3.31397247
H       -3.54663658      -3.64312553       2.27475357
H       -4.46179771      -0.77631187       1.05813599
H       -2.94096184      -0.20546150       0.29573059
H       -3.28763771      -0.02034950       2.07446671
10
Properties=species:S:1:pos:R:3 name=ACE mapped_smiles="[C:1]([C:2]([C:3]([H:8])([H:9])[H:10])=[O:4])([H:5])([H:6])[H:7]" pbc="F F F"
C       -2.80690956       1.13942719       4.69038010
C       -4.08506584       0.25796127       4.75930405
C       -5.42030716       1.00199890       4.97905350
O       -4.14264488      -0.96543121       4.52720261
H       -2.84024811       1.75008774       3.73543930
H       -1.80994415       0.55308914       4.46197891
H       -2.59714317       1.77585220       5.51031113
H       -5.61650848       1.78955841       4.29159164
H       -5.49932671       1.44492340       5.97052383
H       -6.24232864       0.27834702       4.75027847
10
Properties=species:S:1:pos:R:3 name=ACE mapped_smiles="[C:1]([C:2]([C:3]([H:8])([H:9])[H:10])=[O:4])([H:5])([H:6])[H:7]" pbc="F F F"
C       -4.86845398       2.53334236      -2.20420647
C       -5.77960777       3.00060844      -3.28279686
C       -5.09037018       3.39595222      -4.57928276
O       -6.97436714       3.22102547      -3.13304710
H       -4.09913826       3.33293343      -2.07731438
H       -4.38685989       1.60780334      -2.51354027
H       -5.44186783       2.24887276      -1.30824852
H       -5.44102097       2.70174217      -5.36103630
H       -3.97647476       3.44108391      -4.45742607
H       -5.42588425       4.35809898      -4.93758965
10
Properties=species:S:1:pos:R:3 name=ACE mapped_smiles="[C:1]([C:2]([C:3]([H:8])([H:9])[H:10])=[O:4])([H:5])([H:6])[H:7]" pbc="F F F"
C        4.04763794      -0.31530380      -1.98493576
C        4.84259033      -1.64115906      -1.94935608
C        4.13964081      -2.84513474      -2.48224640
O        5.98640823      -1.75786972      -1.60233688
H        3.50727463      -0.10979080      -1.04893875
H        3.40514755      -0.46067047      -2.84349823
H        4.71558762       0.47204208      -2.07650375
H        3.12311172      -2.94924164      -2.04553604
H        4.78540421      -3.72869110      -2.20796585
H        4.03095245      -2.82696915      -3.60562134
10
Properties=species:S:1:pos:R:3 name=ACE mapped_smiles="[C:1]([C:2]([C:3]([H:8])([H:9])[H:10])=[O:4])([H:5])([H:6])[H:7]" pbc="F F F"
C       -0.50745010       3.07121277      -2.63581467
C        0.51908493       3.90439224      -3.27649498
C        0.98122787       3.38769531      -4.59401131
O        1.07500458       4.84014130      -2.73592949
H       -0.85744476       3.57064438      -1.73054695
H       -0.06262970       2.20898819      -2.14122009
H       -1.25513458       2.72803497      -3.33929634
H        0.17045212       3.09339142      -5.15419579
H        1.66073227       2.51654053      -4.54911995
H        1.50210190       4.17742538      -5.09291267
10
Properties=species:S:1:pos:R:3 name=ACE mapped_smiles="[C:1]([C:2]([C:3]([H:8])([H:9])[H:10])=[O:4])([H:5])([H:6])[H:7]" pbc="F F F"
C       -1.72758484      -1.49372864      -3.66099548
C       -3.15683365      -1.26454353      -3.29878616
C       -4.14602470      -1.01021385      -4.43232346
O       -3.55201721      -1.30934143      -2.16874313
H       -1.15350342      -2.15121078      -2.96920395
H       -1.22832108      -0.56214142      -3.69402695
H       -1.61663818      -1.75089264      -4.78691483
H       -3.82552528      -0.95747566      -5.53210831
H       -4.66605949      -0.09503365      -4.13762665
H       -4.93134880      -1.73117065      -4.41097641
