6
Properties=species:S:1:pos:R:3 name=ACN mapped_smiles="[C:1]([C:2]#[N:3])([H:4])([H:5])[H:6]" pbc="F F F"
C        3.03775215       6.45003510      -1.82413101
C        2.78838158       7.47717857      -0.89307213
N        2.42672157       8.48254967      -0.32831573
H        4.08782387       6.12948990      -1.69622040
H        2.40417671       5.60109329      -1.62727165
H        2.95405769       6.64081192      -2.87345695
6
Properties=species:S:1:pos:R:3 name=ACN mapped_smiles="[C:1]([C:2]#[N:3])([H:4])([H:5])[H:6]" pbc="F F F"
C       -0.42493248       4.62769890       1.55901718
C        0.69502640       4.52834892       2.37915039
N        1.73396301       3.99742508       2.71355629
H       -1.22376442       4.08331490       2.08605385
H       -0.82900238       5.65202522       1.56552696
H       -0.29907417       4.24958992       0.46977997
6
Properties=species:S:1:pos:R:3 name=ACN mapped_smiles="[C:1]([C:2]#[N:3])([H:4])([H:5])[H:6]" pbc="F F F"
C        0.15073204       7.48832893       0.87020683
C        1.20783997       6.64979553       0.32162476
N        1.97409248       5.84311295      -0.20886803
H       -0.81686974       7.27269936       0.43910027
H        0.02205276       7.41164207       1.93201256
H        0.42494011       8.50347710       0.61769485
6
Properties=species:S:1:pos:R:3 name=ACN mapped_smiles="[C:1]([C:2]#[N:3])([H:4])([H:5])[H:6]" pbc="F F F"
C       -2.09412003      -1.01574326       4.80209732
C       -3.25273514      -0.84224319       5.59859467
N       -4.24260330      -0.75233078       6.31550217
H       -2.03979111      -0.24755478       4.07091141
H       -1.21719742      -0.99938583       5.44651794
H       -2.15384674      -1.99069595       4.26694489
6
Properties=species:S:1:pos:R:3 name=ACN mapped_smiles="[C:1]([C:2]#[N:3])([H:4])([H:5])[H:6]" pbc="F F F"
C        0.00000000       0.00000000       0.00000000
C       -0.12466240       1.24002457      -0.69742012
N       -0.29078674       2.28238678      -1.33946609
H        0.05658340       0.17130661       1.09106255
H       -0.93435097      -0.52987289      -0.13968468
H        0.85233116      -0.69597626      -0.28405190
6
Properties=species:S:1:pos:R:3 name=ACN mapped_smiles="[C:1]([C:2]#[N:3])([H:4])([H:5])[H:6]" pbc="F F F"
C        2.46212387      -2.88426208      -5.82680130
C        1.84784698      -2.61148071      -7.05091476
N        1.07934189      -2.35674286      -7.95242310
H        2.51882935      -1.92613602      -5.37948990
H        1.89289093      -3.68930054      -5.38922119
H        3.48610306      -3.22802353      -5.97615814
6
Properties=species:S:1:pos:R:3 name=ACN mapped_smiles="[C:1]([C:2]#[N:3])([H:4])([H:5])[H:6]" pbc="F F F"
C        4.16052628       1.38030434      -1.90430832
C        2.99276733       0.81432915      -2.41625977
N        1.96451187       0.42157173      -2.96054077
H        4.44493866       2.14548302      -2.63398743
H        4.04311752       1.70508575      -0.87272644
H        4.90976334       0.64636421      -2.00497437
6
Properties=species:S:1:pos:R:3 name=ACN mapped_smiles="[C:1]([C:2]#[N:3])([H:4])([H:5])[H:6]" pbc="F F F"
C       -1.48108673      -2.21735764       4.00284576
C       -1.70509529      -3.45698738       4.67888641
N       -1.84438515      -4.29265213       5.55996704
H       -2.49463844      -1.97728157       3.55751801
H       -1.14300346      -1.39261818       4.69286346
H       -0.74439049      -2.47245026       3.25247192
6
Properties=species:S:1:pos:R:3 name=ACN mapped_smiles="[C:1]([C:2]#[N:3])([H:4])([H:5])[H:6]" pbc="F F F"
C       -4.44004440      -3.02765465      -3.05102348
C       -4.08644867      -4.39600563      -2.93632889
N       -3.75283432      -5.55082512      -2.84717178
H       -4.90340805      -2.78454018      -4.02884865
H       -5.08055878      -2.75371552      -2.23979187
H       -3.53842545      -2.43930435      -2.84469032
6
Properties=species:S:1:pos:R:3 name=ACN mapped_smiles="[C:1]([C:2]#[N:3])([H:4])([H:5])[H:6]" pbc="F F F"
C        0.00000000       0.00000000       0.00000000
C       -0.98070526      -0.69576263      -0.75661469
N       -1.64652252      -1.37883377      -1.53314972
H        0.53273773      -0.67533112       0.62243652
H        0.71953583       0.46668625      -0.59969330
H       -0.57186890       0.71176910       0.60970306
6
Properties=species:S:1:pos:R:3 name=ACN mapped_smiles="[C:1]([C:2]#[N:3])([H:4])([H:5])[H:6]" pbc="F F F"
C       -0.35865402      -3.02404022       3.45848083
C        0.95973969      -3.32384872       3.94805527
N        2.14092636      -3.55601120       4.13132286
H       -0.22317505      -2.76630783       2.39875031
H       -1.05929565      -3.83855057       3.64078903
H       -0.79520416      -2.07398224       3.93421173
6
Properties=species:S:1:pos:R:3 name=ACN mapped_smiles="[C:1]([C:2]#[N:3])([H:4])([H:5])[H:6]" pbc="F F F"
C        0.00000000       0.00000000       0.00000000
C        0.10853958       0.83049011      -1.16433716
N       -0.05656052       1.55315018      -2.11513519
H       -0.92112350      -0.61848450      -0.11023712
H        0.81723022      -0.63729477       0.06770325
H       -0.11209488       0.64053345       0.86740875
6
Properties=species:S:1:pos:R:3 name=ACN mapped_smiles="[C:1]([C:2]#[N:3])([H:4])([H:5])[H:6]" pbc="F F F"
C        3.35132980      -6.29222107      -5.08911133
C        3.36550903      -5.17723846      -4.17476654
N        3.42969513      -4.36260223      -3.22864532
H        4.31042099      -6.84943390      -5.00086975
H        2.49792480      -6.89938354      -4.78816605
H        3.16196060      -6.07269669      -6.13208389
6
Properties=species:S:1:pos:R:3 name=ACN mapped_smiles="[C:1]([C:2]#[N:3])([H:4])([H:5])[H:6]" pbc="F F F"
C        0.00000000       0.00000000       0.00000000
C       -1.14562225       0.53427696       0.66677475
N       -2.11331558       1.06405258       1.18565750
H        0.29827881      -1.00230408       0.34391785
H       -0.28308868      -0.01028824      -1.03823471
H        0.75782776       0.71170044       0.20016479
6
Properties=species:S:1:pos:R:3 name=ACN mapped_smiles="[C:1]([C:2]#[N:3])([H:4])([H:5])[H:6]" pbc="F F F"
C       -0.47626114       0.67630959       7.35606194
C       -0.62083435      -0.58234406       8.00651360
N       -0.65913773      -1.75465393       8.29287529
H        0.56286240       0.98541451       7.36463737
H       -0.79014206       0.63484955       6.34750748
H       -1.10327530       1.45993423       7.73619652
6
Properties=species:S:1:pos:R:3 name=ACN mapped_smiles="[C:1]([C:2]#[N:3])([H:4])([H:5])[H:6]" pbc="F F F"
C       -3.35294151      -3.31763458      -0.40941048
C       -2.22505760      -3.66562653      -1.18338585
N       -1.28531456      -3.65216827      -1.93241692
H       -3.70130348      -2.31835938      -0.71971321
H       -4.14075279      -4.06249237      -0.57884026
H       -3.08231163      -3.33958817       0.66994286
6
Properties=species:S:1:pos:R:3 name=ACN mapped_smiles="[C:1]([C:2]#[N:3])([H:4])([H:5])[H:6]" pbc="F F F"
C        4.67406654      -4.55551910       0.66023254
C        5.23412895      -3.26701355       0.76494217
N        5.75634575      -2.15558243       0.79811859
H        5.00045586      -5.06281281       1.58267784
H        3.63843346      -4.36285973       0.62471962
H        5.02053261      -5.20652008      -0.12638474
6
Properties=species:S:1:pos:R:3 name=ACN mapped_smiles="[C:1]([C:2]#[N:3])([H:4])([H:5])[H:6]" pbc="F F F"
C        3.06899261       1.19771576       7.63154793
C        2.03380585       1.66196060       8.45841026
N        1.11322784       1.77790070       9.24466515
H        4.05430603       1.22122955       8.07643700
H        2.87393570       0.13000488       7.49838829
H        3.06027222       1.75047684       6.65107918
6
Properties=species:S:1:pos:R:3 name=ACN mapped_smiles="[C:1]([C:2]#[N:3])([H:4])([H:5])[H:6]" pbc="F F F"
C        0.00000000       0.00000000       0.00000000
C       -0.27229309      -0.99347687       0.94910049
N       -0.60237122      -1.82904243       1.73715973
H        1.00209427      -0.12877464      -0.30679321
H       -0.59902954      -0.17384148      -0.89242363
H       -0.10923767       1.02991295       0.35254288
6
Properties=species:S:1:pos:R:3 name=ACN mapped_smiles="[C:1]([C:2]#[N:3])([H:4])([H:5])[H:6]" pbc="F F F"
C        3.53646278       2.53419685      -2.02290726
C        2.92762184       3.54568672      -2.82981491
N        2.42997551       4.56920815      -3.32835770
H        4.53598976       2.30611610      -2.37553787
H        3.66020012       3.07802010      -1.06103134
H        2.90225410       1.67328072      -1.93884659
6
Properties=species:S:1:pos:R:3 name=ACN mapped_smiles="[C:1]([C:2]#[N:3])([H:4])([H:5])[H:6]" pbc="F F F"
C        0.80997086      -4.28599167       1.60509491
C       -0.07466507      -4.05115128       0.58691406
N       -0.95470428      -4.02622604      -0.26598358
H        1.70200539      -3.63569260       1.37326813
H        0.44994164      -4.11955261       2.60292816
H        1.13950348      -5.21547699       1.31108856
6
Properties=species:S:1:pos:R:3 name=ACN mapped_smiles="[C:1]([C:2]#[N:3])([H:4])([H:5])[H:6]" pbc="F F F"
C        2.92792320      -1.47898483      -4.57741165
C        2.57736969      -2.24127960      -5.76688957
N        2.32018852      -2.89954758      -6.75221062
H        4.01806068      -1.59687042      -4.43161011
H        2.73228073      -0.47003555      -4.71912384
H        2.49537277      -1.87899017      -3.68740082
6
Properties=species:S:1:pos:R:3 name=ACN mapped_smiles="[C:1]([C:2]#[N:3])([H:4])([H:5])[H:6]" pbc="F F F"
C        0.00000000       0.00000000       0.00000000
C       -0.69360924      -0.66981506       1.06115341
N       -1.48288155      -1.21915054       1.82565689
H       -0.74526215       0.51884079      -0.62736511
H        0.73768234       0.59844589       0.50018692
H        0.60413933      -0.65563965      -0.70733643
6
Properties=species:S:1:pos:R:3 name=ACN mapped_smiles="[C:1]([C:2]#[N:3])([H:4])([H:5])[H:6]" pbc="F F F"
C       -4.47558212      -1.10806847       1.00559616
C       -5.33313370      -1.47672844      -0.01034164
N       -6.06355667      -1.96851158      -0.87205505
H       -4.74531174      -0.09045410       1.38904572
H       -4.38087463      -1.86460686       1.80179596
H       -3.57654190      -0.98033333       0.49451065
6
Properties=species:S:1:pos:R:3 name=ACN mapped_smiles="[C:1]([C:2]#[N:3])([H:4])([H:5])[H:6]" pbc="F F F"
C        1.13092804      -4.12431717      -5.02263260
C       -0.21017456      -4.62662888      -5.18657684
N       -1.35731888      -5.04466629      -5.17552185
H        1.07795715      -3.05829239      -4.77072144
H        1.60392380      -4.67969894      -4.21041489
H        1.72814941      -4.30864334      -5.95985031
6
Properties=species:S:1:pos:R:3 name=ACN mapped_smiles="[C:1]([C:2]#[N:3])([H:4])([H:5])[H:6]" pbc="F F F"
C        0.00000000       0.00000000       0.00000000
C       -1.35075378       0.43185806      -0.16943550
N       -2.43872833       0.94561005      -0.24478531
H        0.54899216       0.27616119      -0.84869003
H        0.44385910       0.50896454       0.86982346
H       -0.00676346      -1.10044098       0.02490044
6
Properties=species:S:1:pos:R:3 name=ACN mapped_smiles="[C:1]([C:2]#[N:3])([H:4])([H:5])[H:6]" pbc="F F F"
C       11.32551384      -0.38200378      -0.57528687
C       10.59411812      -1.35263634       0.17067719
N       10.07633018      -2.17891884       0.88131714
H       11.94488335       0.14747047       0.14888763
H       11.99993706      -0.90044975      -1.29611588
H       10.61982536       0.24111557      -1.10646820
6
Properties=species:S:1:pos:R:3 name=ACN mapped_smiles="[C:1]([C:2]#[N:3])([H:4])([H:5])[H:6]" pbc="F F F"
C        1.15473175       0.87601280       4.02365112
C        1.82537079      -0.13107681       4.71316528
N        1.97358131      -1.10700989       5.43265152
H        1.54406548       1.83307076       4.12659073
H        1.10148621       0.68959236       3.00112534
H        0.09812546       0.78367996       4.35101318
6
Properties=species:S:1:pos:R:3 name=ACN mapped_smiles="[C:1]([C:2]#[N:3])([H:4])([H:5])[H:6]" pbc="F F F"
C       -2.78453064      -7.66354752       1.69868279
C       -2.63999557      -6.51745224       2.53059006
N       -2.68103027      -5.51241684       3.20722389
H       -2.00691223      -7.78228378       0.97571754
H       -2.66595078      -8.54040146       2.36521912
H       -3.72610855      -7.64906120       1.14596367
6
Properties=species:S:1:pos:R:3 name=ACN mapped_smiles="[C:1]([C:2]#[N:3])([H:4])([H:5])[H:6]" pbc="F F F"
C       -6.12294197       2.59853172      -6.33938789
C       -5.65113640       3.71450615      -5.70527840
N       -5.19312477       4.61954689      -5.05226326
H       -6.17684364       1.82391739      -5.61855507
H       -7.02145958       2.70340919      -6.90428352
H       -5.33775902       2.26955223      -6.99952888
6
Properties=species:S:1:pos:R:3 name=ACN mapped_smiles="[C:1]([C:2]#[N:3])([H:4])([H:5])[H:6]" pbc="F F F"
C        0.00000000       0.00000000       0.00000000
C       -0.08060837      -1.12672424       0.87125015
N       -0.20299149      -1.93942833       1.74222565
H       -0.96753693       0.37631416      -0.05610275
H        0.71599197       0.73968697       0.31585312
H        0.27668190      -0.35757637      -0.99971771
6
Properties=species:S:1:pos:R:3 name=ACN mapped_smiles="[C:1]([C:2]#[N:3])([H:4])([H:5])[H:6]" pbc="F F F"
C        1.01724243       4.82224083       4.41743469
C        0.92333603       3.58062553       3.66926193
N        0.75476456       2.50650024       3.12857819
H        1.55827713       4.59162521       5.39696503
H        1.65203094       5.49810600       3.82290268
H        0.02461243       5.20262909       4.46678543
6
Properties=species:S:1:pos:R:3 name=ACN mapped_smiles="[C:1]([C:2]#[N:3])([H:4])([H:5])[H:6]" pbc="F F F"
C        0.00000000       0.00000000       0.00000000
C       -0.75803375      -1.18612671       0.19982910
N       -1.30470276      -2.26553345       0.29654503
H        0.52752304      -0.00891876      -0.91019440
H       -0.70392609       0.81384277       0.08038521
H        0.67153931       0.17999649       0.85331917
6
Properties=species:S:1:pos:R:3 name=ACN mapped_smiles="[C:1]([C:2]#[N:3])([H:4])([H:5])[H:6]" pbc="F F F"
C       -1.31423187      -2.87974548      -5.72773361
C       -1.67237663      -2.75124741      -4.37123871
N       -1.90322685      -2.90616608      -3.18817139
H       -1.11130905      -1.88122559      -6.08855247
H       -0.49306107      -3.57938766      -5.79006195
H       -2.09354782      -3.26576996      -6.30961037
6
Properties=species:S:1:pos:R:3 name=ACN mapped_smiles="[C:1]([C:2]#[N:3])([H:4])([H:5])[H:6]" pbc="F F F"
C        0.00000000       0.00000000       0.00000000
C        1.42347908       0.17121124      -0.06190109
N        2.51355171       0.65505981      -0.29432297
H       -0.34740257       0.00748825       1.03697205
H       -0.47008705       0.82146835      -0.51783752
H       -0.19341087      -0.93072510      -0.40887833
6
Properties=species:S:1:pos:R:3 name=ACN mapped_smiles="[C:1]([C:2]#[N:3])([H:4])([H:5])[H:6]" pbc="F F F"
C        4.87706184       0.62427521       1.83869743
C        4.11794281      -0.60824966       2.03662300
N        3.46545410      -1.63593674       1.99379539
H        5.86223412       0.30540085       1.52089882
H        4.35315514       1.20226288       1.11813545
H        4.95250702       1.22399521       2.77849770
6
Properties=species:S:1:pos:R:3 name=ACN mapped_smiles="[C:1]([C:2]#[N:3])([H:4])([H:5])[H:6]" pbc="F F F"
C        0.98194885       0.65658569      -4.24232483
C        0.60339928       0.79620361      -5.58989525
N        0.32165146       0.88082695      -6.76208305
H        1.53845406       1.60091209      -4.00031471
H        0.11692047       0.53167915      -3.63952446
H        1.61991882      -0.17531967      -4.17564011
6
Properties=species:S:1:pos:R:3 name=ACN mapped_smiles="[C:1]([C:2]#[N:3])([H:4])([H:5])[H:6]" pbc="F F F"
C        0.00000000       0.00000000       0.00000000
C        0.80404663       0.89332962      -0.74418640
N        1.52719116       1.75708008      -1.26503754
H        0.54377747      -0.50977707       0.81650543
H       -0.86905670       0.57633591       0.46067047
H       -0.39472961      -0.77679825      -0.67309570
6
Properties=species:S:1:pos:R:3 name=ACN mapped_smiles="[C:1]([C:2]#[N:3])([H:4])([H:5])[H:6]" pbc="F F F"
C       -1.97089005      -0.80457687       3.17129326
C       -1.29211426       0.43363571       3.30778503
N       -0.82186508       1.45832443       3.67536163
H       -2.39785385      -1.07794189       4.11607361
H       -2.69318771      -0.72660446       2.40680695
H       -1.37118912      -1.61036301       2.83418655
6
Properties=species:S:1:pos:R:3 name=ACN mapped_smiles="[C:1]([C:2]#[N:3])([H:4])([H:5])[H:6]" pbc="F F F"
C       -3.52774429       3.15989304      -7.14166641
C       -3.05756378       2.48074722      -5.98071671
N       -2.79780197       1.86897659      -4.94489670
H       -3.05073547       2.65102005      -7.99605560
H       -4.58647919       3.00094223      -7.19375992
H       -3.20419312       4.17444229      -7.07794189
