12
Properties=species:S:1:pos:R:3 name=BZ mapped_smiles="[c:1]1([H:7])[c:2]([H:8])[c:3]([H:9])[c:4]([H:10])[c:5]([H:11])[c:6]1[H:12]" pbc="F F F"
C        0.00000000       0.00000000       0.00000000
C        0.86728287       1.03985977      -0.33946800
C        0.43287659       2.33653259      -0.05174828
C       -0.76439285       2.61514282       0.55748558
C       -1.58968925       1.56412888       0.94859695
C       -1.21360970       0.22639465       0.66531563
H        0.25433540      -1.06015015      -0.20835304
H        1.88137627       0.86382294      -0.70509529
H        1.07525444       3.14727020      -0.22045517
H       -0.95094109       3.68255997       0.78276443
H       -2.58063316       1.80411911       1.48512840
H       -1.92997932      -0.61684036       0.83136940
12
Properties=species:S:1:pos:R:3 name=BZ mapped_smiles="[c:1]1([H:7])[c:2]([H:8])[c:3]([H:9])[c:4]([H:10])[c:5]([H:11])[c:6]1[H:12]" pbc="F F F"
C        5.55443001       6.64554977       0.20954895
C        6.58712578       7.08775711       1.12840271
C        6.26695442       7.29320335       2.48762512
C        4.96215630       6.93104935       3.02761078
C        3.98439980       6.46779251       2.13426971
C        4.29194641       6.36157608       0.75183105
H        5.75550270       6.41798782      -0.83387756
H        7.55588341       7.32204247       0.76001740
H        7.03864479       7.58408165       3.23777008
H        4.65355492       7.06984329       4.10712433
H        2.99693871       6.29523849       2.47593689
H        3.49028015       5.95905304       0.08124542
12
Properties=species:S:1:pos:R:3 name=BZ mapped_smiles="[c:1]1([H:7])[c:2]([H:8])[c:3]([H:9])[c:4]([H:10])[c:5]([H:11])[c:6]1[H:12]" pbc="F F F"
C        0.00000000       0.00000000       0.00000000
C        0.97805786       1.05346870       0.00563812
C        0.58337212       2.36107635      -0.27524757
C       -0.76379585       2.67125511      -0.41684532
C       -1.74089622       1.65458679      -0.48256111
C       -1.34641457       0.27693176      -0.31533051
H        0.30393600      -1.00712776       0.17837334
H        2.00574303       0.85522270       0.14689255
H        1.35289001       3.13122559      -0.37795448
H       -1.09283257       3.71896744      -0.60624313
H       -2.81609726       1.95613098      -0.55004311
H       -2.09153938      -0.52836609      -0.41353416
12
Properties=species:S:1:pos:R:3 name=BZ mapped_smiles="[c:1]1([H:7])[c:2]([H:8])[c:3]([H:9])[c:4]([H:10])[c:5]([H:11])[c:6]1[H:12]" pbc="F F F"
C       -5.05489731      -1.64391708       0.23433685
C       -5.18653870      -2.21296310       1.49765396
C       -5.15927887      -1.34756088       2.62996292
C       -5.05244446       0.05615616       2.46509933
C       -4.95213699       0.56156540       1.16217804
C       -5.00106812      -0.32615280       0.07424164
H       -5.11228561      -2.24854660      -0.64408493
H       -5.22610092      -3.30844879       1.50658798
H       -5.13711548      -1.86499405       3.59783936
H       -5.05619431       0.75339127       3.27294922
H       -4.90583420       1.63963699       1.00471878
H       -4.91006851       0.14412308      -0.88084793
12
Properties=species:S:1:pos:R:3 name=BZ mapped_smiles="[c:1]1([H:7])[c:2]([H:8])[c:3]([H:9])[c:4]([H:10])[c:5]([H:11])[c:6]1[H:12]" pbc="F F F"
C        2.80924797      -9.10190964       1.68510628
C        2.02378654      -8.29680634       2.52139473
C        1.14705849      -8.81772232       3.42107964
C        0.86442757     -10.16711426       3.36021614
C        1.66526222     -11.00550461       2.55534172
C        2.64437675     -10.46871567       1.68648338
H        3.55439186      -8.65174866       1.04303551
H        2.20761681      -7.23473740       2.64532661
H        0.63787651      -8.13772583       4.05608940
H        0.20833015     -10.64465714       4.07575417
H        1.48515892     -12.02038193       2.55209541
H        3.21264458     -11.12372971       0.99819183
12
Properties=species:S:1:pos:R:3 name=BZ mapped_smiles="[c:1]1([H:7])[c:2]([H:8])[c:3]([H:9])[c:4]([H:10])[c:5]([H:11])[c:6]1[H:12]" pbc="F F F"
C        3.29713440       0.15913773       1.45385551
C        3.45843506      -1.09357452       1.98987579
C        4.53372192      -1.97121048       1.66244888
C        5.52932358      -1.45837784       0.74031258
C        5.33061218      -0.24494171       0.13498497
C        4.21424866       0.56145859       0.53470039
H        2.36497879       0.73199463       1.40347099
H        2.82196808      -1.32760620       2.76680756
H        4.69149399      -2.97611237       2.10344696
H        6.43027878      -2.05015182       0.46251106
H        6.03983688       0.21067047      -0.56990242
H        4.14366150       1.57970047       0.12487602
12
Properties=species:S:1:pos:R:3 name=BZ mapped_smiles="[c:1]1([H:7])[c:2]([H:8])[c:3]([H:9])[c:4]([H:10])[c:5]([H:11])[c:6]1[H:12]" pbc="F F F"
C       -1.27763748       7.30016899       3.66197586
C       -0.89782715       6.71603012       2.46809769
C        0.44394302       6.15219116       2.35219955
C        1.29195404       6.30206299       3.40943146
C        0.96670151       6.87333298       4.60746765
C       -0.39323807       7.34874535       4.73206711
H       -2.29074478       7.69605827       3.83229065
H       -1.60025787       6.69224930       1.68347931
H        0.85353851       5.82602692       1.40785217
H        2.34373474       5.96468163       3.33662796
H        1.58332062       7.01448822       5.48443604
H       -0.78398895       7.89533043       5.60229111
12
Properties=species:S:1:pos:R:3 name=BZ mapped_smiles="[c:1]1([H:7])[c:2]([H:8])[c:3]([H:9])[c:4]([H:10])[c:5]([H:11])[c:6]1[H:12]" pbc="F F F"
C        3.20245361      -1.33338737       6.93367004
C        4.10410309      -2.10140419       6.14327049
C        4.15618515      -1.87685966       4.74653435
C        3.38163376      -0.95499611       4.08128166
C        2.44289780      -0.20263672       4.76737213
C        2.40419960      -0.39014053       6.22449684
H        3.16649246      -1.49989128       8.01727867
H        4.75413513      -2.81801987       6.65922928
H        4.89886475      -2.45505905       4.15939140
H        3.48466110      -0.89538574       2.96115875
H        1.74226189       0.43833542       4.20252037
H        1.66929436       0.25821114       6.74498177
12
Properties=species:S:1:pos:R:3 name=BZ mapped_smiles="[c:1]1([H:7])[c:2]([H:8])[c:3]([H:9])[c:4]([H:10])[c:5]([H:11])[c:6]1[H:12]" pbc="F F F"
C       -3.86322784      -3.11056709       0.77552795
C       -4.55661011      -4.22875023       1.25568008
C       -4.85387039      -4.38462639       2.59306717
C       -4.38167953      -3.37984276       3.48339462
C       -3.56841660      -2.34545517       3.03951645
C       -3.35470200      -2.14116478       1.65784073
H       -3.70242310      -2.98213768      -0.30998230
H       -4.85526657      -4.99810219       0.49381638
H       -5.34876251      -5.20417213       2.99185181
H       -4.57996368      -3.52643013       4.50886917
H       -3.05820084      -1.70873070       3.71666336
H       -2.75680161      -1.29004288       1.24251938
12
Properties=species:S:1:pos:R:3 name=BZ mapped_smiles="[c:1]1([H:7])[c:2]([H:8])[c:3]([H:9])[c:4]([H:10])[c:5]([H:11])[c:6]1[H:12]" pbc="F F F"
C       -5.64060974       2.76480865       2.85334778
C       -5.29061127       3.80491257       3.79188538
C       -6.26454926       4.77255630       4.02784348
C       -7.61601067       4.52949905       3.52272797
C       -7.96873474       3.52419662       2.57392883
C       -6.94565964       2.63241959       2.24711990
H       -4.81839752       2.13564682       2.54891586
H       -4.30516434       3.93596268       4.17370605
H       -6.03958893       5.67648697       4.48124695
H       -8.34078789       5.25249863       3.72164154
H       -8.99759293       3.46449661       2.13657379
H       -7.15737534       1.81412125       1.47751999
12
Properties=species:S:1:pos:R:3 name=BZ mapped_smiles="[c:1]1([H:7])[c:2]([H:8])[c:3]([H:9])[c:4]([H:10])[c:5]([H:11])[c:6]1[H:12]" pbc="F F F"
C       -6.93076706       2.48726273       4.91397667
C       -6.63477707       1.18577194       4.53783989
C       -5.61691475       0.91841888       3.64068222
C       -4.97234917       1.96497726       2.97380066
C       -5.26587486       3.31190872       3.32828522
C       -6.28494835       3.62206268       4.31951714
H       -7.66596413       2.59398270       5.68099785
H       -7.09890556       0.36899948       5.00803566
H       -5.29904175      -0.11535263       3.52212524
H       -4.16809845       1.91017151       2.21567535
H       -4.87908745       4.18262482       2.78598022
H       -6.62262535       4.63378906       4.50824928
12
Properties=species:S:1:pos:R:3 name=BZ mapped_smiles="[c:1]1([H:7])[c:2]([H:8])[c:3]([H:9])[c:4]([H:10])[c:5]([H:11])[c:6]1[H:12]" pbc="F F F"
C        2.20314789       2.74613190       1.44086838
C        2.40236282       2.11951065       2.65344620
C        1.57215881       2.41377258       3.74889565
C        0.48686218       3.25814438       3.59686279
C        0.24706650       3.84159851       2.33047295
C        1.08609772       3.61380005       1.25069046
H        2.80216599       2.50025940       0.57259560
H        3.17657089       1.37681580       2.80875206
H        1.70008469       1.96738434       4.71495438
H       -0.20986938       3.29883194       4.41285896
H       -0.62896729       4.34247208       2.12268639
H        0.79905319       3.89130402       0.26699448
12
Properties=species:S:1:pos:R:3 name=BZ mapped_smiles="[c:1]1([H:7])[c:2]([H:8])[c:3]([H:9])[c:4]([H:10])[c:5]([H:11])[c:6]1[H:12]" pbc="F F F"
C        5.62060928      -8.13894272      -1.34603310
C        6.04815674      -9.09363556      -0.45157433
C        7.37858391      -9.62414932      -0.51912498
C        8.17492485      -9.22469330      -1.55921936
C        7.75611687      -8.24359131      -2.46266174
C        6.46233368      -7.75080109      -2.36545372
H        4.64037704      -7.73361206      -1.20483017
H        5.39670563      -9.45085526       0.29433250
H        7.73299217     -10.37756729       0.13081551
H        9.22311211      -9.66603851      -1.60506248
H        8.43404198      -7.92517090      -3.29912186
H        6.13286209      -7.01683044      -3.05560112
12
Properties=species:S:1:pos:R:3 name=BZ mapped_smiles="[c:1]1([H:7])[c:2]([H:8])[c:3]([H:9])[c:4]([H:10])[c:5]([H:11])[c:6]1[H:12]" pbc="F F F"
C       -3.45660019      -2.66754913      -4.30783844
C       -3.07991409      -3.55955315      -3.30177689
C       -1.81544495      -3.46167564      -2.65729523
C       -0.93919754      -2.46345329      -2.92155838
C       -1.34388351      -1.50466347      -3.86744690
C       -2.58161545      -1.59642220      -4.54887772
H       -4.41634750      -2.71300125      -4.79679871
H       -3.77048111      -4.31758499      -2.92263794
H       -1.47850418      -4.22886276      -1.91688538
H        0.05980682      -2.49099541      -2.53904724
H       -0.70057297      -0.67679596      -4.08558273
H       -2.88172150      -0.91381264      -5.29256439
12
Properties=species:S:1:pos:R:3 name=BZ mapped_smiles="[c:1]1([H:7])[c:2]([H:8])[c:3]([H:9])[c:4]([H:10])[c:5]([H:11])[c:6]1[H:12]" pbc="F F F"
C       -0.40111923       5.66637611       0.37699318
C        1.02991486       5.84672928       0.41943169
C        1.87600327       4.77788162       0.76184845
C        1.25024033       3.53822517       1.20038795
C       -0.19138336       3.45564651       1.13826561
C       -0.95991135       4.47824860       0.64737701
H       -1.01255035       6.51533318       0.18550682
H        1.32651901       6.86816788       0.21891594
H        2.96262741       4.91418266       0.77221680
H        1.79166794       2.63935661       1.45178986
H       -0.67557526       2.46846008       1.27803612
H       -2.01128769       4.30203056       0.56563377
12
Properties=species:S:1:pos:R:3 name=BZ mapped_smiles="[c:1]1([H:7])[c:2]([H:8])[c:3]([H:9])[c:4]([H:10])[c:5]([H:11])[c:6]1[H:12]" pbc="F F F"
C        0.00000000       0.00000000       0.00000000
C        0.09282684       0.77766037       1.16851616
C       -0.99700165       1.53755951       1.56449699
C       -2.06952667       1.63667297       0.73385429
C       -2.18379211       0.84519958      -0.47031212
C       -1.15721893      -0.00724030      -0.74006844
H        0.77303314      -0.65941620      -0.30982018
H        1.02085114       0.64352036       1.71908379
H       -0.93864441       2.15383530       2.47137642
H       -2.85173798       2.27541351       1.11086082
H       -3.03159332       0.99455261      -1.10260582
H       -1.13274384      -0.57122040      -1.62434578
12
Properties=species:S:1:pos:R:3 name=BZ mapped_smiles="[c:1]1([H:7])[c:2]([H:8])[c:3]([H:9])[c:4]([H:10])[c:5]([H:11])[c:6]1[H:12]" pbc="F F F"
C        2.91403770      -2.70206833       7.09490585
C        1.82746696      -3.53389359       6.70059586
C        0.74808311      -2.88073921       6.01462936
C        0.68321228      -1.44009018       5.86146164
C        1.78114319      -0.64823723       6.41400909
C        2.90462685      -1.28033829       6.95333481
H        3.78164101      -3.13005257       7.49880028
H        1.87672997      -4.66605186       6.66193008
H       -0.10589790      -3.50156021       5.53612137
H       -0.18539238      -0.97561836       5.42819595
H        1.77621269       0.49097061       6.24503708
H        3.77803230      -0.67377663       7.33641624
12
Properties=species:S:1:pos:R:3 name=BZ mapped_smiles="[c:1]1([H:7])[c:2]([H:8])[c:3]([H:9])[c:4]([H:10])[c:5]([H:11])[c:6]1[H:12]" pbc="F F F"
C        0.00000000       0.00000000       0.00000000
C        1.09327698       0.74052811       0.47005081
C        0.89294815       1.76094055       1.31651306
C       -0.41035461       2.13229370       1.62003708
C       -1.53936386       1.47044754       1.11476898
C       -1.32540512       0.36445618       0.27461624
H        0.20594025      -0.90078735      -0.56782913
H        2.13465500       0.45225906       0.18751526
H        1.76963806       2.33025360       1.58339310
H       -0.53311920       3.04396057       2.21087646
H       -2.54633713       1.91401291       1.26598358
H       -2.11778259      -0.06776047      -0.27416992
12
Properties=species:S:1:pos:R:3 name=BZ mapped_smiles="[c:1]1([H:7])[c:2]([H:8])[c:3]([H:9])[c:4]([H:10])[c:5]([H:11])[c:6]1[H:12]" pbc="F F F"
C       -0.36283112       5.39489555       2.91886139
C       -1.18222046       6.37218285       3.50977135
C       -2.31725311       6.87650490       2.77263451
C       -2.70023346       6.23680687       1.60098076
C       -1.92863464       5.18264580       1.01333046
C       -0.74879456       4.76711464       1.68287849
H        0.49811554       5.06494713       3.43286133
H       -0.93916321       6.61522102       4.48833084
H       -2.88362122       7.64961815       3.15948486
H       -3.54370117       6.52870750       1.07697105
H       -2.22583008       4.78213310       0.06501961
H       -0.19019318       3.95825386       1.38815689
12
Properties=species:S:1:pos:R:3 name=BZ mapped_smiles="[c:1]1([H:7])[c:2]([H:8])[c:3]([H:9])[c:4]([H:10])[c:5]([H:11])[c:6]1[H:12]" pbc="F F F"
C        0.00000000       0.00000000       0.00000000
C        0.68952560      -0.80108833      -0.90714073
C        2.12927818      -0.98500824      -0.78977966
C        2.80249023      -0.24380493       0.24285698
C        2.07462502       0.59638405       1.15510178
C        0.69859314       0.53984642       1.06694794
H       -1.06759644       0.24062347      -0.05018616
H        0.14686394      -1.35825539      -1.67081070
H        2.65585518      -1.57919121      -1.52695274
H        3.82444572      -0.23685074       0.29629707
H        2.59924889       1.08011246       2.01725769
H        0.17676735       1.16504669       1.79519844
12
Properties=species:S:1:pos:R:3 name=BZ mapped_smiles="[c:1]1([H:7])[c:2]([H:8])[c:3]([H:9])[c:4]([H:10])[c:5]([H:11])[c:6]1[H:12]" pbc="F F F"
C       -2.05526733      -5.24560547      -3.42820358
C       -1.46451187      -6.41680145      -2.95748901
C       -0.13713074      -6.73779297      -3.26689529
C        0.53778458      -5.86718750      -4.10389709
C        0.01542664      -4.69712067      -4.52917480
C       -1.28816986      -4.31082916      -4.10724640
H       -3.13173676      -5.12626648      -3.25131607
H       -2.05474854      -7.17356110      -2.41588211
H        0.30498886      -7.65622711      -2.98268509
H        1.47557831      -6.16998291      -4.43292236
H        0.59943390      -4.00220490      -5.17382050
H       -1.77076721      -3.38938141      -4.56262207
12
Properties=species:S:1:pos:R:3 name=BZ mapped_smiles="[c:1]1([H:7])[c:2]([H:8])[c:3]([H:9])[c:4]([H:10])[c:5]([H:11])[c:6]1[H:12]" pbc="F F F"
C       -2.86980438      -5.37857056      -0.51165771
C       -1.43771362      -5.17182541      -0.52379608
C       -0.60369873      -5.87863541       0.37834167
C       -1.24749756      -6.82901955       1.29109955
C       -2.60943604      -7.09826851       1.29125214
C       -3.41130066      -6.38541985       0.36386871
H       -3.48370361      -4.80554199      -1.18665314
H       -0.98793030      -4.42249680      -1.09559631
H        0.44872284      -5.67605591       0.28581238
H       -0.61022949      -7.45384407       1.83804321
H       -2.93586731      -7.84458160       1.96614838
H       -4.43813705      -6.75625610       0.30622864
12
Properties=species:S:1:pos:R:3 name=BZ mapped_smiles="[c:1]1([H:7])[c:2]([H:8])[c:3]([H:9])[c:4]([H:10])[c:5]([H:11])[c:6]1[H:12]" pbc="F F F"
C       -4.34837723       0.73621750       6.25664520
C       -4.18181610      -0.38032913       5.43760681
C       -4.58398438      -1.63319016       5.88388824
C       -5.17213440      -1.83905029       7.13614464
C       -5.46844101      -0.69235229       7.92503166
C       -4.99922180       0.57119751       7.48924065
H       -4.04280090       1.77265549       5.94232178
H       -3.77234650      -0.27605438       4.44222260
H       -4.47788239      -2.49885941       5.25148010
H       -5.53036880      -2.81787109       7.38934135
H       -6.11598587      -0.73986053       8.82599449
H       -5.13463593       1.46609497       8.14011192
12
Properties=species:S:1:pos:R:3 name=BZ mapped_smiles="[c:1]1([H:7])[c:2]([H:8])[c:3]([H:9])[c:4]([H:10])[c:5]([H:11])[c:6]1[H:12]" pbc="F F F"
C       -7.51625061       3.35169029      -2.00127411
C       -7.28903961       2.12441444      -1.53669739
C       -6.79591751       1.96213531      -0.27807999
C       -6.55176544       3.08896446       0.58456039
C       -6.77550125       4.32964325       0.06960297
C       -7.31158829       4.52656174      -1.23772430
H       -7.93387604       3.37822914      -3.04755211
H       -7.53686142       1.31055641      -2.20649338
H       -6.61232758       0.93543816       0.12273026
H       -6.20719528       2.84243774       1.57413101
H       -6.51514816       5.22757912       0.66008759
H       -7.54597092       5.49825096      -1.63780594
12
Properties=species:S:1:pos:R:3 name=BZ mapped_smiles="[c:1]1([H:7])[c:2]([H:8])[c:3]([H:9])[c:4]([H:10])[c:5]([H:11])[c:6]1[H:12]" pbc="F F F"
C       -2.43089676       0.78737259      -4.45651245
C       -3.71720505       0.73090363      -4.97991943
C       -4.30645370      -0.49446869      -5.21002960
C       -3.64041519      -1.67678833      -4.98910904
C       -2.34276962      -1.63586426      -4.49200058
C       -1.77717209      -0.43427277      -4.16326904
H       -2.09225845       1.77238846      -4.06758499
H       -4.27858353       1.66750336      -5.04591370
H       -5.35579300      -0.42817688      -5.49298477
H       -4.08978653      -2.65655518      -5.21036148
H       -1.84963608      -2.55506134      -4.34780502
H       -0.77996445      -0.46520233      -3.73017120
12
Properties=species:S:1:pos:R:3 name=BZ mapped_smiles="[c:1]1([H:7])[c:2]([H:8])[c:3]([H:9])[c:4]([H:10])[c:5]([H:11])[c:6]1[H:12]" pbc="F F F"
C        4.07054138       9.08002281      -2.10997963
C        4.00406265       7.73496056      -1.68003273
C        3.79537582       6.68135071      -2.62367439
C        3.80241776       6.98875427      -3.95422173
C        3.92275238       8.34601402      -4.35904312
C        4.01926422       9.38964653      -3.42355156
H        4.14762497       9.90797997      -1.39813042
H        3.99337387       7.49850273      -0.60711479
H        3.66216278       5.69618607      -2.35057449
H        3.86199188       6.18643951      -4.70248222
H        3.96283340       8.59356499      -5.40114212
H        3.97085571      10.48138237      -3.68495369
12
Properties=species:S:1:pos:R:3 name=BZ mapped_smiles="[c:1]1([H:7])[c:2]([H:8])[c:3]([H:9])[c:4]([H:10])[c:5]([H:11])[c:6]1[H:12]" pbc="F F F"
C        0.00000000       0.00000000       0.00000000
C        0.35651398      -1.02284241      -0.94558716
C        1.66944313      -1.52466011      -1.08000946
C        2.68838882      -0.86481285      -0.37615204
C        2.36148643       0.09622002       0.58972168
C        1.02149773       0.52450371       0.81636047
H       -1.11794472       0.16941452       0.17290497
H       -0.49583626      -1.40602875      -1.49925995
H        1.83659744      -2.43631744      -1.70283508
H        3.67953873      -1.32594109      -0.44258118
H        3.15555191       0.39749718       1.20257568
H        0.77307701       1.28394890       1.58554840
12
Properties=species:S:1:pos:R:3 name=BZ mapped_smiles="[c:1]1([H:7])[c:2]([H:8])[c:3]([H:9])[c:4]([H:10])[c:5]([H:11])[c:6]1[H:12]" pbc="F F F"
C        0.00000000       0.00000000       0.00000000
C       -0.35875702       0.36478424      -1.32289314
C        0.56992340       0.14810371      -2.36495018
C        1.94217110      -0.20202065      -2.06193352
C        2.29985619      -0.57547951      -0.76446152
C        1.33747673      -0.48899460       0.28207779
H       -0.76696587       0.06271172       0.81769371
H       -1.36934853       0.74350548      -1.55689430
H        0.25803566       0.32528877      -3.36927605
H        2.66404915      -0.32504272      -2.87614250
H        3.25946236      -1.07895851      -0.58406448
H        1.63390160      -0.73640251       1.30167198
12
Properties=species:S:1:pos:R:3 name=BZ mapped_smiles="[c:1]1([H:7])[c:2]([H:8])[c:3]([H:9])[c:4]([H:10])[c:5]([H:11])[c:6]1[H:12]" pbc="F F F"
C        0.00000000       0.00000000       0.00000000
C       -1.41766357       0.10744476      -0.08446884
C       -2.34365082      -0.84165192       0.41473198
C       -1.81534576      -1.93557358       1.14097404
C       -0.40246201      -2.10435867       1.09658051
C        0.50799561      -1.18652344       0.53877640
H        0.75666809       0.61895752      -0.50454330
H       -1.84337616       0.99469757      -0.56655312
H       -3.44900131      -0.61323929       0.31418419
H       -2.40969086      -2.75463486       1.59596634
H        0.08101654      -3.02445602       1.47630882
H        1.53368759      -1.48424149       0.58823204
12
Properties=species:S:1:pos:R:3 name=BZ mapped_smiles="[c:1]1([H:7])[c:2]([H:8])[c:3]([H:9])[c:4]([H:10])[c:5]([H:11])[c:6]1[H:12]" pbc="F F F"
C        0.00000000       0.00000000       0.00000000
C        0.47135735       0.43256378       1.29178429
C       -0.18669319       1.53159904       1.92563057
C       -1.15188599       2.25221443       1.23855591
C       -1.59979057       1.81271172       0.00489235
C       -1.02849197       0.67306900      -0.62874413
H        0.39361191      -0.93146133      -0.39281082
H        1.24362946      -0.12136269       1.83140373
H        0.09309196       2.00006294       2.87442970
H       -1.54268837       3.15925407       1.71802902
H       -2.38356590       2.37606621      -0.54260445
H       -1.27330208       0.32921028      -1.61775780
12
Properties=species:S:1:pos:R:3 name=BZ mapped_smiles="[c:1]1([H:7])[c:2]([H:8])[c:3]([H:9])[c:4]([H:10])[c:5]([H:11])[c:6]1[H:12]" pbc="F F F"
C        3.89308739      -3.93524551      -4.54882622
C        2.92253685      -4.47968292      -3.64409447
C        2.83554649      -5.84574890      -3.45508385
C        3.85667229      -6.67228508      -3.91883659
C        4.75266838      -6.15267754      -4.84089470
C        4.83196831      -4.80049324      -5.13265038
H        3.76753807      -2.91287041      -4.81946373
H        2.12981796      -3.82523155      -3.20257378
H        2.02435303      -6.17239380      -2.78700066
H        3.94434547      -7.69471550      -3.66851616
H        5.47682762      -6.83238029      -5.30322838
H        5.39296913      -4.42461205      -5.98863029
12
Properties=species:S:1:pos:R:3 name=BZ mapped_smiles="[c:1]1([H:7])[c:2]([H:8])[c:3]([H:9])[c:4]([H:10])[c:5]([H:11])[c:6]1[H:12]" pbc="F F F"
C       -3.50520706      -3.48332214       6.36945343
C       -4.04092789      -3.56998062       5.06905365
C       -4.78675079      -2.51889420       4.53029633
C       -5.08495522      -1.40994644       5.32366562
C       -4.49603653      -1.27239990       6.60179138
C       -3.67348862      -2.29262924       7.10664749
H       -2.82218170      -4.24341202       6.74038315
H       -3.86330032      -4.42837524       4.43527985
H       -5.14270782      -2.48875809       3.50025177
H       -5.70884895      -0.59110260       4.96435165
H       -4.48986435      -0.28102112       6.97510529
H       -3.09011078      -2.07413483       8.01296806
12
Properties=species:S:1:pos:R:3 name=BZ mapped_smiles="[c:1]1([H:7])[c:2]([H:8])[c:3]([H:9])[c:4]([H:10])[c:5]([H:11])[c:6]1[H:12]" pbc="F F F"
C        2.52881241      -3.36559105      -2.10440445
C        3.26092911      -3.80941582      -3.17598724
C        2.60382080      -4.04279137      -4.34738731
C        1.23253632      -3.88879967      -4.48950386
C        0.45837021      -3.45588493      -3.41291428
C        1.16047287      -3.21336937      -2.19825554
H        3.01395798      -3.18338585      -1.18037033
H        4.36030960      -3.86744499      -3.13356972
H        3.16232681      -4.32631493      -5.20158768
H        0.76451111      -3.98577690      -5.53436279
H       -0.59594345      -3.17633629      -3.50385094
H        0.57108688      -2.83516502      -1.37451172
12
Properties=species:S:1:pos:R:3 name=BZ mapped_smiles="[c:1]1([H:7])[c:2]([H:8])[c:3]([H:9])[c:4]([H:10])[c:5]([H:11])[c:6]1[H:12]" pbc="F F F"
C        0.00000000       0.00000000       0.00000000
C        0.77022171       0.81880569       0.81397057
C        1.92145538       1.47653961       0.38101578
C        2.32168579       1.29888535      -0.96022415
C        1.57557678       0.46917343      -1.83630753
C        0.39442825      -0.17940140      -1.33794785
H       -0.92166901      -0.36838531       0.39569092
H        0.45410538       1.00080490       1.78894997
H        2.53803253       2.18935394       0.96959114
H        3.16997147       1.86457062      -1.38493538
H        1.75633621       0.41699219      -2.85978889
H       -0.28021622      -0.76408386      -1.96810532
12
Properties=species:S:1:pos:R:3 name=BZ mapped_smiles="[c:1]1([H:7])[c:2]([H:8])[c:3]([H:9])[c:4]([H:10])[c:5]([H:11])[c:6]1[H:12]" pbc="F F F"
C       -1.38225937      -1.07163239      -5.06496429
C       -1.98669434      -2.24947548      -4.57543564
C       -2.69876671      -2.22573662      -3.34937668
C       -2.81909752      -0.93860435      -2.68905258
C       -2.13508606       0.20699883      -3.12884903
C       -1.55993462       0.16025352      -4.46350479
H       -0.84294891      -1.00798416      -6.06418228
H       -1.91570282      -3.16973305      -5.13871384
H       -3.17152977      -3.13830757      -2.94688416
H       -3.44703865      -0.93726158      -1.77416992
H       -2.32149315       1.09663963      -2.57065201
H       -1.10760307       1.08222008      -4.85688019
12
Properties=species:S:1:pos:R:3 name=BZ mapped_smiles="[c:1]1([H:7])[c:2]([H:8])[c:3]([H:9])[c:4]([H:10])[c:5]([H:11])[c:6]1[H:12]" pbc="F F F"
C        0.29625702      -2.16129494       5.83349419
C        1.31956100      -1.71296501       6.73429871
C        2.25878716      -0.70218277       6.27740669
C        2.14255142      -0.19175148       4.90508080
C        1.10112000      -0.68961334       4.08710098
C        0.20343971      -1.59187126       4.58524132
H       -0.28700256      -3.03723717       6.15853500
H        1.26230049      -2.11467934       7.73708916
H        3.02276230      -0.25184822       6.88760948
H        2.72360420       0.53415680       4.39015770
H        1.09898758      -0.33169365       3.05361748
H       -0.58323288      -1.96591949       3.89496422
12
Properties=species:S:1:pos:R:3 name=BZ mapped_smiles="[c:1]1([H:7])[c:2]([H:8])[c:3]([H:9])[c:4]([H:10])[c:5]([H:11])[c:6]1[H:12]" pbc="F F F"
C        0.00000000       0.00000000       0.00000000
C       -0.18652153      -0.93489075      -1.06853485
C       -1.40536308      -0.99699593      -1.81727409
C       -2.43070602      -0.18722534      -1.43760681
C       -2.27643967       0.74706078      -0.36973763
C       -1.06786919       0.85225868       0.29980659
H        1.01445580      -0.01805878       0.46940231
H        0.58005524      -1.69411087      -1.32641792
H       -1.48533440      -1.60698509      -2.66698456
H       -3.43469620      -0.25812149      -1.96031380
H       -3.08207703       1.41426086      -0.08542252
H       -1.07095146       1.60131645       1.07468605
12
Properties=species:S:1:pos:R:3 name=BZ mapped_smiles="[c:1]1([H:7])[c:2]([H:8])[c:3]([H:9])[c:4]([H:10])[c:5]([H:11])[c:6]1[H:12]" pbc="F F F"
C       -4.57220459       1.88106537      -1.18221283
C       -4.98431015       3.19193268      -0.93821716
C       -4.09985733       4.23245239      -1.21683502
C       -2.75275803       4.02135086      -1.57228851
C       -2.34863281       2.68159866      -1.73133469
C       -3.30344009       1.62936401      -1.65153503
H       -5.25262070       1.05632782      -0.98244858
H       -6.01985168       3.44044495      -0.59583664
H       -4.35190582       5.26375961      -0.94963074
H       -2.03545380       4.84621429      -1.61375809
H       -1.34468842       2.40412140      -2.23097992
H       -3.05074692       0.62141800      -1.82718277
12
Properties=species:S:1:pos:R:3 name=BZ mapped_smiles="[c:1]1([H:7])[c:2]([H:8])[c:3]([H:9])[c:4]([H:10])[c:5]([H:11])[c:6]1[H:12]" pbc="F F F"
C        5.31171799       2.60352325       3.41485596
C        4.65574646       2.21054840       2.25167084
C        3.48509216       1.47512436       2.34761238
C        2.99465179       1.03267288       3.56859970
C        3.63221359       1.43606186       4.77139282
C        4.76265335       2.30301285       4.69644737
H        6.13536453       3.27625656       3.35781860
H        5.09646225       2.54460144       1.28090477
H        3.10468292       1.16535568       1.39113617
H        2.02797318       0.54118729       3.61569214
H        3.21725082       1.19544601       5.70158577
H        5.14036942       2.77241516       5.58442688
12
Properties=species:S:1:pos:R:3 name=BZ mapped_smiles="[c:1]1([H:7])[c:2]([H:8])[c:3]([H:9])[c:4]([H:10])[c:5]([H:11])[c:6]1[H:12]" pbc="F F F"
C       -2.06433487       6.31868553      -0.76699448
C       -2.24645233       5.42202759       0.24456787
C       -2.06879044       4.03310013      -0.00070190
C       -1.91718674       3.62361145      -1.34178925
C       -1.88171387       4.52606964      -2.41162491
C       -2.01057053       5.91635513      -2.10584641
H       -2.07089233       7.32567787      -0.50843430
H       -2.42525864       5.75938416       1.26520157
H       -2.17273712       3.39774704       0.83259583
H       -1.98898697       2.52746201      -1.53882980
H       -1.70231628       4.19619370      -3.40362167
H       -1.98038101       6.71849060      -2.91525269
