8
Properties=species:S:1:pos:R:3 name=HAC mapped_smiles="[C:1]([C:2](=[O:3])[O:4][H:8])([H:5])([H:6])[H:7]" pbc="F F F"
C        5.50435829       6.20252991       0.79430580
C        6.20150948       7.42455101       0.27083778
O        6.69192696       8.32385826       0.84987831
O        6.16479683       7.32492638      -1.07506371
H        5.85621834       5.88959885       1.75566292
H        5.61396217       5.35345078       0.08733559
H        4.47490120       6.52759933       0.94715309
H        6.88684273       7.95213127      -1.42055321
8
Properties=species:S:1:pos:R:3 name=HAC mapped_smiles="[C:1]([C:2](=[O:3])[O:4][H:8])([H:5])([H:6])[H:7]" pbc="F F F"
C        0.00000000       0.00000000       0.00000000
C        0.01411819       1.18913078      -0.89950562
O       -0.46977615       1.19234085      -2.00357819
O        0.54703712       2.22231293      -0.24139404
H       -1.04185486      -0.10578156       0.23326874
H        0.60305595       0.16474724       0.93505096
H        0.33494377      -0.84709167      -0.56905365
H        0.62260818       2.96516228      -0.97371674
8
Properties=species:S:1:pos:R:3 name=HAC mapped_smiles="[C:1]([C:2](=[O:3])[O:4][H:8])([H:5])([H:6])[H:7]" pbc="F F F"
C        4.13389778       5.53520775       4.40222931
C        2.81531715       6.10733795       3.81813812
O        1.81162834       5.49077415       3.55425644
O        2.97569847       7.35079765       3.48867416
H        3.87891579       5.18408203       5.38633919
H        4.88962746       6.27050018       4.42259979
H        4.38857651       4.65760231       3.71688461
H        2.05929565       7.63980675       3.34003830
8
Properties=species:S:1:pos:R:3 name=HAC mapped_smiles="[C:1]([C:2](=[O:3])[O:4][H:8])([H:5])([H:6])[H:7]" pbc="F F F"
C        0.81802368      -2.48553085       4.46593857
C        1.59957886      -1.29825211       4.15907669
O        1.23243713      -0.43828964       3.40808105
O        2.84088135      -1.26567459       4.74949265
H        0.23933411      -2.82541275       3.63908768
H        0.18555450      -2.20576096       5.28388214
H        1.44162369      -3.27490997       4.88376236
H        3.32168961      -0.49592972       4.27676392
8
Properties=species:S:1:pos:R:3 name=HAC mapped_smiles="[C:1]([C:2](=[O:3])[O:4][H:8])([H:5])([H:6])[H:7]" pbc="F F F"
C        3.18553352      -3.35631943       2.30185509
C        1.88701820      -3.66831970       1.72675705
O        1.55875969      -4.78793335       1.32204819
O        1.07308388      -2.55919647       1.61180496
H        3.09395409      -3.44126129       3.37943077
H        3.52960014      -2.37257004       2.08016014
H        4.04241371      -3.99233246       2.00761414
H        0.25845528      -2.85895538       1.15833473
8
Properties=species:S:1:pos:R:3 name=HAC mapped_smiles="[C:1]([C:2](=[O:3])[O:4][H:8])([H:5])([H:6])[H:7]" pbc="F F F"
C        0.00000000       0.00000000       0.00000000
C        0.83789825       0.65204239      -1.07438278
O        1.11741257       1.86268997      -1.03123283
O        1.26603317      -0.30921173      -1.98456383
H        0.62967682      -0.63898087       0.68561745
H       -0.73752975      -0.64780426      -0.41643906
H       -0.52022934       0.74481583       0.56938744
H        1.86664963       0.16488647      -2.58879662
8
Properties=species:S:1:pos:R:3 name=HAC mapped_smiles="[C:1]([C:2](=[O:3])[O:4][H:8])([H:5])([H:6])[H:7]" pbc="F F F"
C        2.69938278       1.39100647       2.57300186
C        2.41300583       1.82974052       3.96070099
O        1.84972382       1.28548050       4.88132095
O        2.81760025       3.03836060       4.09838486
H        3.37908554       2.13660431       2.17816544
H        1.82673645       1.47382545       1.90803528
H        3.09635162       0.41278458       2.55628586
H        2.51226425       3.25303650       4.97998810
8
Properties=species:S:1:pos:R:3 name=HAC mapped_smiles="[C:1]([C:2](=[O:3])[O:4][H:8])([H:5])([H:6])[H:7]" pbc="F F F"
C        3.91578674      -0.98028183      -0.52943420
C        4.32127762       0.11471748       0.39344215
O        5.35051727      -0.03577232       1.03327751
O        3.50069809       1.13534927       0.43775940
H        3.08110046      -0.65689659      -1.13737297
H        3.75650024      -1.85049248       0.08266258
H        4.71866989      -1.27611351      -1.11034203
H        3.67754364       1.54065132       1.33989525
8
Properties=species:S:1:pos:R:3 name=HAC mapped_smiles="[C:1]([C:2](=[O:3])[O:4][H:8])([H:5])([H:6])[H:7]" pbc="F F F"
C        0.00000000       0.00000000       0.00000000
C        1.31609344      -0.65376472      -0.33907318
O        1.60921478      -1.04003906      -1.47994614
O        2.02014923      -0.85386848       0.78214264
H        0.03398514       0.49212646       1.00076294
H       -0.77787781      -0.76225662      -0.06737137
H       -0.27294159       0.84240150      -0.67631531
H        2.96172714      -0.94593620       0.50547409
8
Properties=species:S:1:pos:R:3 name=HAC mapped_smiles="[C:1]([C:2](=[O:3])[O:4][H:8])([H:5])([H:6])[H:7]" pbc="F F F"
C       -1.47780609       5.49460602       6.12196350
C       -2.53003693       6.01486969       7.05257797
O       -2.35362625       6.58377075       8.10776329
O       -3.71269226       5.71684647       6.53882599
H       -1.82629776       5.16432571       5.13233948
H       -0.97510529       4.63315582       6.51913834
H       -0.78255844       6.29614258       6.04626083
H       -4.36920547       6.22512436       7.04853439
8
Properties=species:S:1:pos:R:3 name=HAC mapped_smiles="[C:1]([C:2](=[O:3])[O:4][H:8])([H:5])([H:6])[H:7]" pbc="F F F"
C        1.37806320       2.00609207       4.75746155
C        0.29319000       2.34385681       3.68144417
O       -0.09886169       1.48566055       2.89939308
O       -0.03077316       3.62548828       3.58029747
H        2.24273300       2.61614227       4.53757286
H        1.59479523       0.93003082       4.76101494
H        0.97340012       2.22302628       5.71666145
H       -0.43035507       3.67481232       2.70652962
8
Properties=species:S:1:pos:R:3 name=HAC mapped_smiles="[C:1]([C:2](=[O:3])[O:4][H:8])([H:5])([H:6])[H:7]" pbc="F F F"
C       -4.31529808       5.89052963      -0.68108940
C       -3.19169235       6.77933884      -0.12539482
O       -3.31661987       7.99748039       0.02898407
O       -2.00625229       6.13161087      -0.07758904
H       -5.33099174       6.19993973      -0.42361832
H       -4.02105522       4.83495712      -0.35055542
H       -4.22273636       5.84049225      -1.76371384
H       -1.44816208       6.78922272       0.33348274
8
Properties=species:S:1:pos:R:3 name=HAC mapped_smiles="[C:1]([C:2](=[O:3])[O:4][H:8])([H:5])([H:6])[H:7]" pbc="F F F"
C        3.22334671      -5.27511597       0.19473267
C        3.75536728      -4.24274445       1.09504700
O        3.39543533      -4.19460297       2.26913071
O        4.71161270      -3.43126297       0.67159271
H        3.80205917      -6.19781876       0.16967010
H        3.14931488      -4.87283325      -0.83092880
H        2.21331406      -5.61890030       0.54248428
H        4.91338348      -2.95596313       1.50819016
8
Properties=species:S:1:pos:R:3 name=HAC mapped_smiles="[C:1]([C:2](=[O:3])[O:4][H:8])([H:5])([H:6])[H:7]" pbc="F F F"
C        0.13550186      -6.57220268      -1.52675247
C       -0.73669815      -7.01081657      -2.69366455
O       -0.37512970      -7.03752708      -3.84379959
O       -2.02079773      -7.33568001      -2.34027863
H        0.63601685      -7.43849373      -1.17257690
H       -0.49744415      -6.13538170      -0.75259399
H        0.88625336      -5.79816246      -1.82999802
H       -2.53767395      -7.39612389      -3.14764786
8
Properties=species:S:1:pos:R:3 name=HAC mapped_smiles="[C:1]([C:2](=[O:3])[O:4][H:8])([H:5])([H:6])[H:7]" pbc="F F F"
C        0.00000000       0.00000000       0.00000000
C        0.34539032      -0.73394394       1.28785515
O        0.83202744      -1.80995560       1.38401222
O        0.19142914       0.01887512       2.37402344
H       -0.35700607      -0.69477654      -0.84884834
H        0.98678207       0.45723724      -0.33320427
H       -0.62619781       0.86717033       0.24908829
H        0.72471237      -0.42699432       3.05316734
8
Properties=species:S:1:pos:R:3 name=HAC mapped_smiles="[C:1]([C:2](=[O:3])[O:4][H:8])([H:5])([H:6])[H:7]" pbc="F F F"
C       -5.05209923       0.98350906      -5.00843239
C       -5.12810135      -0.14440536      -5.95153999
O       -5.77801323      -1.13735962      -5.84095955
O       -4.42228317       0.05578613      -7.13142204
H       -5.02281570       0.68884659      -4.05109596
H       -5.99742699       1.52910614      -5.09002113
H       -4.23839378       1.65808105      -5.23716545
H       -4.53926086      -0.71826935      -7.73514748
8
Properties=species:S:1:pos:R:3 name=HAC mapped_smiles="[C:1]([C:2](=[O:3])[O:4][H:8])([H:5])([H:6])[H:7]" pbc="F F F"
C        0.00000000       0.00000000       0.00000000
C       -0.14071083      -0.71613312       1.32092094
O       -0.88366127      -0.56074524       2.29897690
O        0.66277504      -1.73914337       1.26610756
H       -0.92981529       0.50108337      -0.15565109
H        0.20406532      -0.65911865      -0.84052277
H        0.84239006       0.72079468      -0.04602623
H        0.41962051      -2.34534454       2.01580238
8
Properties=species:S:1:pos:R:3 name=HAC mapped_smiles="[C:1]([C:2](=[O:3])[O:4][H:8])([H:5])([H:6])[H:7]" pbc="F F F"
C        1.37688446       4.65926361       4.08057404
C        0.31853104       5.49344254       3.37637711
O       -0.66424942       5.97771835       3.87879562
O        0.59771347       5.61610794       2.08078384
H        1.83491898       3.96974945       3.41304016
H        0.96032715       4.04796982       4.85325623
H        2.10230637       5.36164093       4.41217041
H       -0.17048264       6.11043930       1.64121628
8
Properties=species:S:1:pos:R:3 name=HAC mapped_smiles="[C:1]([C:2](=[O:3])[O:4][H:8])([H:5])([H:6])[H:7]" pbc="F F F"
C       -8.87346840      -1.10888863      -1.69731712
C       -8.10458755      -1.56889153      -0.50717735
O       -8.52639008      -2.50353432       0.20219994
O       -6.97666168      -0.88394356      -0.43459892
H       -9.77649879      -0.63870430      -1.35442162
H       -9.25954819      -1.95586586      -2.24068260
H       -8.33441925      -0.46118355      -2.37532616
H       -6.50417900      -1.25268745       0.36008835
8
Properties=species:S:1:pos:R:3 name=HAC mapped_smiles="[C:1]([C:2](=[O:3])[O:4][H:8])([H:5])([H:6])[H:7]" pbc="F F F"
C        0.80854225      -3.65900230       2.17090034
C        1.92534447      -4.17097664       3.02800369
O        2.69990349      -3.44007301       3.63616371
O        1.73390961      -5.46476173       3.20310020
H       -0.02982140      -3.57754898       2.82704163
H        0.60658836      -4.30943871       1.24438477
H        1.21348572      -2.78305244       1.69621658
H        2.25639153      -5.71918297       3.96428108
8
Properties=species:S:1:pos:R:3 name=HAC mapped_smiles="[C:1]([C:2](=[O:3])[O:4][H:8])([H:5])([H:6])[H:7]" pbc="F F F"
C        0.00000000       0.00000000       0.00000000
C        1.09415245       0.84538269       0.50959015
O        2.21278954       0.45923233       0.77655792
O        0.79925537       2.12762451       0.61994553
H       -0.83695793       0.55622101      -0.33925247
H       -0.30766678      -0.73868179       0.75089645
H        0.30207825      -0.61845779      -0.81839752
H        1.50498962       2.48382568       1.23079300
8
Properties=species:S:1:pos:R:3 name=HAC mapped_smiles="[C:1]([C:2](=[O:3])[O:4][H:8])([H:5])([H:6])[H:7]" pbc="F F F"
C        4.11147308      -4.94465256      -1.87382698
C        3.42783546      -3.74674606      -1.23654366
O        3.88560295      -2.74851227      -0.78227997
O        2.09868240      -4.04874420      -1.09927177
H        5.14611244      -5.06991196      -1.48001480
H        4.11709404      -4.85025024      -2.96892738
H        3.55057144      -5.79481506      -1.57059288
H        1.69780159      -3.28107071      -0.65036201
8
Properties=species:S:1:pos:R:3 name=HAC mapped_smiles="[C:1]([C:2](=[O:3])[O:4][H:8])([H:5])([H:6])[H:7]" pbc="F F F"
C        0.78252411      -5.62429810       0.66088104
C       -0.40255547      -5.81949997      -0.21430206
O       -1.57570839      -5.83042145       0.14571762
O       -0.03918839      -6.12282562      -1.46554947
H        0.91887093      -6.51830673       1.27466583
H        0.69474411      -4.78803635       1.37800980
H        1.67531586      -5.46290588       0.05338287
H       -0.78598976      -6.60232925      -1.76033783
8
Properties=species:S:1:pos:R:3 name=HAC mapped_smiles="[C:1]([C:2](=[O:3])[O:4][H:8])([H:5])([H:6])[H:7]" pbc="F F F"
C        0.00000000       0.00000000       0.00000000
C        0.16854858      -1.16821861       0.87092590
O       -0.42809677      -1.20470238       1.91707230
O        1.05150223      -2.07996941       0.46708298
H       -1.06847382       0.38196182       0.11663818
H       -0.00203705      -0.26949692      -1.00090027
H        0.70885086       0.79381943       0.28600311
H        1.07693100      -2.85192680       1.06171799
8
Properties=species:S:1:pos:R:3 name=HAC mapped_smiles="[C:1]([C:2](=[O:3])[O:4][H:8])([H:5])([H:6])[H:7]" pbc="F F F"
C        0.17317581       1.22544479      -7.40330505
C        0.62981033       1.09068298      -5.93313599
O        1.05097198       0.08959198      -5.40455627
O        0.63257980       2.37988663      -5.39180756
H        0.16456604       0.25403976      -7.79618454
H        0.87075043       1.75345230      -8.03346252
H       -0.86603928       1.57378006      -7.39468002
H        0.87872696       2.24914169      -4.42459106
8
Properties=species:S:1:pos:R:3 name=HAC mapped_smiles="[C:1]([C:2](=[O:3])[O:4][H:8])([H:5])([H:6])[H:7]" pbc="F F F"
C        4.30366516       4.70141220       3.67993736
C        3.57120895       5.63848495       2.80415916
O        3.76734543       5.83710480       1.59692955
O        2.46514130       6.08884048       3.39964104
H        5.28355026       4.46494675       3.25846291
H        3.64696884       3.80683517       3.73258018
H        4.43524170       5.13529968       4.62296867
H        2.14965057       6.83609772       2.83744621
8
Properties=species:S:1:pos:R:3 name=HAC mapped_smiles="[C:1]([C:2](=[O:3])[O:4][H:8])([H:5])([H:6])[H:7]" pbc="F F F"
C        8.64497185       1.46343040       0.95438385
C        9.15313530       2.43865395      -0.06427765
O        8.40291023       2.92937279      -0.90999603
O       10.46390343       2.73025322       0.04623413
H        7.71150780       1.92096138       1.41373444
H        9.33578300       1.16918182       1.72512817
H        8.34723473       0.58945274       0.36799622
H       10.57919502       3.50091171      -0.58964539
8
Properties=species:S:1:pos:R:3 name=HAC mapped_smiles="[C:1]([C:2](=[O:3])[O:4][H:8])([H:5])([H:6])[H:7]" pbc="F F F"
C        1.73570251      -4.19272614       2.64673615
C        2.59807014      -5.44797325       3.01996994
O        2.42192268      -6.56928444       2.58652496
O        3.54334068      -5.13329124       3.85462952
H        1.71659660      -3.49101830       3.45235443
H        0.67909431      -4.42480278       2.38328552
H        2.15480995      -3.79551506       1.75783920
H        3.75818062      -6.00137520       4.18421173
8
Properties=species:S:1:pos:R:3 name=HAC mapped_smiles="[C:1]([C:2](=[O:3])[O:4][H:8])([H:5])([H:6])[H:7]" pbc="F F F"
C       -4.68722534      -3.24044800       7.13038445
C       -4.75566864      -3.50813484       5.73971558
O       -5.23534393      -2.70825577       4.94001961
O       -4.37989044      -4.71320343       5.54156113
H       -5.21292114      -3.96636772       7.74886513
H       -5.13233185      -2.24110413       7.33693123
H       -3.64200211      -3.23091888       7.40485954
H       -4.17483902      -4.80313873       4.56568336
8
Properties=species:S:1:pos:R:3 name=HAC mapped_smiles="[C:1]([C:2](=[O:3])[O:4][H:8])([H:5])([H:6])[H:7]" pbc="F F F"
C       -0.00000763       3.35041618      -4.15929031
C       -0.14896774       1.85887718      -4.16592598
O       -1.13922310       1.21783638      -4.46551704
O        0.97993660       1.28573418      -3.69685173
H        1.08728218       3.66728020      -4.18294907
H       -0.35682106       3.72986794      -3.25790787
H       -0.52902031       3.82932472      -4.96101189
H        1.09598351       0.39418221      -4.08448982
8
Properties=species:S:1:pos:R:3 name=HAC mapped_smiles="[C:1]([C:2](=[O:3])[O:4][H:8])([H:5])([H:6])[H:7]" pbc="F F F"
C        4.01163673       0.44562912      -2.90512657
C        2.66506004      -0.16739464      -2.65816307
O        1.60681915       0.22975731      -3.03401756
O        2.85327721      -1.21865463      -1.88226128
H        3.83014107       1.53133011      -3.01642418
H        4.50181770       0.11606407      -3.83626366
H        4.67368889       0.20054054      -2.05984306
H        2.02193451      -1.70882797      -1.72830772
8
Properties=species:S:1:pos:R:3 name=HAC mapped_smiles="[C:1]([C:2](=[O:3])[O:4][H:8])([H:5])([H:6])[H:7]" pbc="F F F"
C       -0.28198242       2.79570770       7.72965813
C       -1.68205643       2.76031876       7.22952843
O       -2.66630173       2.56915283       7.94111443
O       -1.73982620       2.94873428       5.92880249
H        0.14443588       3.78257370       7.64499474
H        0.29647827       2.13105011       7.05796051
H       -0.19998932       2.48315811       8.72474480
H       -2.72286987       2.99533844       5.72603989
8
Properties=species:S:1:pos:R:3 name=HAC mapped_smiles="[C:1]([C:2](=[O:3])[O:4][H:8])([H:5])([H:6])[H:7]" pbc="F F F"
C        4.73715591       0.13731956      -0.80497742
C        4.34173203      -0.62406540       0.47961426
O        4.66574860      -1.68275070       0.98488235
O        3.54227448       0.14610672       1.16572762
H        4.65322495      -0.59992218      -1.61636353
H        5.75805664       0.48342514      -0.71165848
H        4.17556381       1.04691696      -0.91569710
H        3.54567719      -0.25744057       2.09468269
8
Properties=species:S:1:pos:R:3 name=HAC mapped_smiles="[C:1]([C:2](=[O:3])[O:4][H:8])([H:5])([H:6])[H:7]" pbc="F F F"
C       -4.76949692      -0.00728989      -0.05126953
C       -4.29285622      -0.06253815      -1.45761871
O       -4.62692833      -0.86854172      -2.30998230
O       -3.38781929       0.85202789      -1.82244873
H       -5.81411171       0.45812225      -0.07038116
H       -4.09962273       0.58488846       0.55595398
H       -4.86377335      -1.01888657       0.39014435
H       -3.03202438       0.56169128      -2.69596100
8
Properties=species:S:1:pos:R:3 name=HAC mapped_smiles="[C:1]([C:2](=[O:3])[O:4][H:8])([H:5])([H:6])[H:7]" pbc="F F F"
C       -4.04733467      -4.29235268      -0.60009766
C       -4.96783447      -3.22907066      -1.10089493
O       -5.34477043      -2.22502708      -0.55835724
O       -5.34906578      -3.45016670      -2.35838699
H       -4.65317345      -5.16939545      -0.38935471
H       -3.50387001      -4.02745438       0.31155014
H       -3.39771461      -4.72303009      -1.34887314
H       -6.04374504      -2.77481270      -2.49500275
8
Properties=species:S:1:pos:R:3 name=HAC mapped_smiles="[C:1]([C:2](=[O:3])[O:4][H:8])([H:5])([H:6])[H:7]" pbc="F F F"
C        0.00000000       0.00000000       0.00000000
C       -0.06721497       1.45447922       0.24454117
O       -0.41182709       2.20109558      -0.61502457
O        0.29192734       1.86400223       1.46765137
H       -0.71120834      -0.31969070      -0.80886459
H       -0.33428574      -0.39691925       0.98133469
H        1.01727867      -0.29170990      -0.29313278
H        0.10761261       2.81663132       1.40029526
8
Properties=species:S:1:pos:R:3 name=HAC mapped_smiles="[C:1]([C:2](=[O:3])[O:4][H:8])([H:5])([H:6])[H:7]" pbc="F F F"
C       -1.72639465       3.87745476       2.58511925
C       -2.72632980       4.51912498       1.66992188
O       -2.50647926       5.21581459       0.74792099
O       -3.98724556       4.10197258       1.87617493
H       -2.09917450       2.96779442       3.00526619
H       -1.63589668       4.60831642       3.31447411
H       -0.72528839       3.90542030       2.15812302
H       -4.53383064       4.33888435       1.11903954
8
Properties=species:S:1:pos:R:3 name=HAC mapped_smiles="[C:1]([C:2](=[O:3])[O:4][H:8])([H:5])([H:6])[H:7]" pbc="F F F"
C       -3.86056137      -2.33600616      -2.23535538
C       -3.47909546      -2.42342758      -0.81303024
O       -2.69709778      -3.19639587      -0.38248444
O       -4.15657425      -1.50235367      -0.13044357
H       -3.07953262      -2.89314270      -2.77312088
H       -3.84465790      -1.27209854      -2.60347748
H       -4.84714508      -2.75812912      -2.34862137
H       -3.78857422      -1.52070999       0.79279709
8
Properties=species:S:1:pos:R:3 name=HAC mapped_smiles="[C:1]([C:2](=[O:3])[O:4][H:8])([H:5])([H:6])[H:7]" pbc="F F F"
C        0.00000000       0.00000000       0.00000000
C       -1.23098373      -0.78202057      -0.32381058
O       -2.31969070      -0.60124207       0.15171432
O       -0.94104767      -1.83180237      -1.04463387
H        0.45865631      -0.36152649       0.94092941
H       -0.28536606       0.98137665       0.09407043
H        0.72440338      -0.09922028      -0.75037384
H       -1.73672485      -2.36610794      -1.08923531
8
Properties=species:S:1:pos:R:3 name=HAC mapped_smiles="[C:1]([C:2](=[O:3])[O:4][H:8])([H:5])([H:6])[H:7]" pbc="F F F"
C        0.00000000       0.00000000       0.00000000
C        1.38602448      -0.12227058       0.31938171
O        2.28387070       0.05811119      -0.45496750
O        1.54277802      -0.35944939       1.65983200
H       -0.16952896       0.58299446      -0.93568802
H       -0.51455688       0.40563965       0.84617233
H       -0.40368652      -0.98182869      -0.19351578
H        2.43533707      -0.06958580       1.90358734
