12
Properties=species:S:1:pos:R:3 name=DMC mapped_smiles="[C:1]([O:2][C:3](=[O:4])[O:5][C:6]([H:10])([H:11])[H:12])([H:7])([H:8])[H:9]" pbc="F F F"
C       -1.77745247       4.27688599      -2.84557915
O       -2.84797478       3.52800179      -3.34245872
C       -4.02758217       3.45096397      -2.71275520
O       -4.36077118       3.98877525      -1.65828323
O       -4.75894356       2.56322861      -3.47343254
C       -6.19188881       2.22899818      -3.23551369
H       -1.79107094       5.18949127      -3.43095398
H       -1.93776512       4.55851173      -1.75116158
H       -0.86710930       3.74103355      -2.95047188
H       -6.57109833       1.99537277      -4.19485283
H       -6.25038910       1.33840942      -2.57404518
H       -6.67608452       3.16877174      -2.92939186
12
Properties=species:S:1:pos:R:3 name=DMC mapped_smiles="[C:1]([O:2][C:3](=[O:4])[O:5][C:6]([H:10])([H:11])[H:12])([H:7])([H:8])[H:9]" pbc="F F F"
C       -4.03769684      -0.04919434       0.93951035
O       -4.02571487      -1.08551788      -0.06383133
C       -2.85560608      -1.27367401      -0.75766754
O       -1.85715103      -0.54099274      -0.63408661
O       -2.92334366      -2.35836029      -1.55604172
C       -1.66482544      -2.88507080      -2.13214493
H       -3.19923019      -0.19905090       1.60750961
H       -4.12232780       0.96492386       0.57615662
H       -4.87152290      -0.22010422       1.55785370
H       -0.87458611      -3.13684464      -1.36080933
H       -1.91170311      -3.68026352      -2.78653717
H       -1.21490860      -2.12090683      -2.79625702
12
Properties=species:S:1:pos:R:3 name=DMC mapped_smiles="[C:1]([O:2][C:3](=[O:4])[O:5][C:6]([H:10])([H:11])[H:12])([H:7])([H:8])[H:9]" pbc="F F F"
C        1.52843666      -0.12158585      -2.95040894
O        1.26904678       1.25931168      -3.25783920
C        0.91686249       2.06237793      -2.14463425
O        0.65457344       1.54260635      -1.01552582
O        1.06798935       3.38199615      -2.46074295
C        0.89582253       4.28539658      -1.34719467
H        2.21500587      -0.54939270      -3.63208389
H        1.79542923      -0.33354568      -1.94151306
H        0.57150459      -0.68178940      -3.13241196
H        1.71045876       3.98607254      -0.64543915
H        1.10347939       5.29026794      -1.60573578
H       -0.01848984       4.14136887      -0.75922394
12
Properties=species:S:1:pos:R:3 name=DMC mapped_smiles="[C:1]([O:2][C:3](=[O:4])[O:5][C:6]([H:10])([H:11])[H:12])([H:7])([H:8])[H:9]" pbc="F F F"
C        0.00000000       0.00000000       0.00000000
O        0.48295593      -1.17458725       0.74380112
C        0.70104980      -2.21630669      -0.04137039
O        0.59062576      -2.28166199      -1.30502510
O        0.73990250      -3.23444557       0.83876801
C        0.59067917      -4.60662460       0.37963104
H       -0.62931442       0.62271118       0.65509796
H        0.88508606       0.61221695      -0.20991898
H       -0.46550751      -0.35078430      -0.91216278
H        1.30640030      -5.28642273       0.82471848
H       -0.39505768      -4.89836311       0.68804932
H        0.70605087      -4.60515213      -0.67964935
12
Properties=species:S:1:pos:R:3 name=DMC mapped_smiles="[C:1]([O:2][C:3](=[O:4])[O:5][C:6]([H:10])([H:11])[H:12])([H:7])([H:8])[H:9]" pbc="F F F"
C       -2.33115196       2.73679924      -4.15783119
O       -2.03948784       4.10185432      -4.34832191
C       -0.85622215       4.60532570      -3.95498848
O        0.18051720       3.92528343      -3.78412819
O       -0.93097115       5.98914528      -3.89497566
C        0.25138664       6.68283272      -3.57525826
H       -3.19710541       2.59699249      -4.79953194
H       -1.55278015       2.03150368      -4.46936989
H       -2.75356102       2.47410202      -3.20047188
H        0.69920731       7.19773293      -4.42308235
H        0.03651619       7.35832787      -2.74459076
H        0.95971489       5.93678474      -3.16411018
12
Properties=species:S:1:pos:R:3 name=DMC mapped_smiles="[C:1]([O:2][C:3](=[O:4])[O:5][C:6]([H:10])([H:11])[H:12])([H:7])([H:8])[H:9]" pbc="F F F"
C       -1.20899010      -2.20047379      -3.33361435
O       -2.47006798      -1.80438232      -2.71736717
C       -2.51125526      -1.09091568      -1.60407448
O       -1.46551895      -0.86056709      -0.93933487
O       -3.81866455      -0.71149254      -1.40706825
C       -4.17050171       0.09350395      -0.27637291
H       -0.66616631      -2.84943962      -2.65527534
H       -1.48516846      -2.71566963      -4.24676704
H       -0.52483177      -1.36171532      -3.40276909
H       -4.80027008      -0.45546722       0.41751862
H       -3.27737427       0.54482460       0.18334389
H       -4.78470039       0.86485481      -0.71704292
12
Properties=species:S:1:pos:R:3 name=DMC mapped_smiles="[C:1]([O:2][C:3](=[O:4])[O:5][C:6]([H:10])([H:11])[H:12])([H:7])([H:8])[H:9]" pbc="F F F"
C        0.00000000       0.00000000       0.00000000
O        0.68193817       1.23436356       0.24508667
C        0.06327057       2.35735703       0.00436401
O       -1.17350006       2.46682358      -0.16255188
O        1.04372406       3.31772995       0.17458725
C        0.71486282       4.67281723      -0.05856895
H       -0.53835678       0.09250259      -1.00042725
H        0.58743286      -0.88216972       0.04530907
H       -0.72669601      -0.07928467       0.79592896
H        1.10574341       5.01626968      -1.02453423
H       -0.33946991       4.79975510       0.03693390
H        1.22791672       5.19104004       0.71558762
12
Properties=species:S:1:pos:R:3 name=DMC mapped_smiles="[C:1]([O:2][C:3](=[O:4])[O:5][C:6]([H:10])([H:11])[H:12])([H:7])([H:8])[H:9]" pbc="F F F"
C        0.00000000       0.00000000       0.00000000
O        0.08400345      -0.53573227       1.40856552
C       -0.23374939       0.31930542       2.46088791
O       -0.66046524       1.44923782       2.33344650
O        0.13288879      -0.28797531       3.57229996
C        0.41046524       0.58012772       4.73876572
H        0.40202332      -0.74881363      -0.71574783
H       -1.03163528       0.23638916      -0.20326233
H        0.68115997       0.82942963      -0.09102249
H       -0.44606781       1.18005753       4.92794800
H        0.56833649      -0.08024597       5.60704041
H        1.29552460       1.15563583       4.49465942
12
Properties=species:S:1:pos:R:3 name=DMC mapped_smiles="[C:1]([O:2][C:3](=[O:4])[O:5][C:6]([H:10])([H:11])[H:12])([H:7])([H:8])[H:9]" pbc="F F F"
C        0.00000000       0.00000000       0.00000000
O        1.03251266      -0.77155685       0.76138496
C        0.47851562      -1.61798096       1.72345352
O       -0.67405701      -1.59364319       2.10770035
O        1.54200363      -2.39766312       2.07798195
C        1.30373764      -3.10558319       3.28300667
H       -0.21309280       0.98144913       0.54168320
H        0.61158752       0.20231628      -0.92536926
H       -0.87504959      -0.67524719      -0.19594765
H        0.89105988      -2.42056656       4.05122185
H        0.66475677      -3.95632553       2.98992348
H        2.21548843      -3.56748199       3.72449875
12
Properties=species:S:1:pos:R:3 name=DMC mapped_smiles="[C:1]([O:2][C:3](=[O:4])[O:5][C:6]([H:10])([H:11])[H:12])([H:7])([H:8])[H:9]" pbc="F F F"
C        0.00000000       0.00000000       0.00000000
O       -0.32252693       0.37397194      -1.36558723
C       -1.48702049      -0.13365746      -1.89717293
O       -2.19112206      -0.95234489      -1.34697914
O       -1.64346313       0.21785545      -3.19597816
C       -1.18401337       1.46225929      -3.73411751
H       -0.21609306      -1.03745842       0.17499352
H        1.04751015       0.19139671       0.21317673
H       -0.70883179       0.45999527       0.65530968
H       -0.93805504       1.42206955      -4.77781105
H       -2.09276390       2.09819984      -3.75676155
H       -0.47995758       1.97063255      -3.12611580
12
Properties=species:S:1:pos:R:3 name=DMC mapped_smiles="[C:1]([O:2][C:3](=[O:4])[O:5][C:6]([H:10])([H:11])[H:12])([H:7])([H:8])[H:9]" pbc="F F F"
C       -4.07474327      -1.77261734       2.46888733
O       -5.37019539      -2.37604713       2.26794434
C       -6.30551338      -1.57229805       1.66747665
O       -6.19806290      -0.37397957       1.35269928
O       -7.37044334      -2.37712860       1.45545387
C       -8.51204872      -1.73903656       0.90329361
H       -3.41883278      -2.36964989       1.87308121
H       -4.05445290      -0.72072029       2.25222206
H       -3.77677155      -1.78730011       3.51730537
H       -9.25982857      -2.47848701       0.76621437
H       -8.81338692      -0.89843941       1.53683281
H       -8.14983559      -1.31927681       0.03637314
12
Properties=species:S:1:pos:R:3 name=DMC mapped_smiles="[C:1]([O:2][C:3](=[O:4])[O:5][C:6]([H:10])([H:11])[H:12])([H:7])([H:8])[H:9]" pbc="F F F"
C        0.00000000       0.00000000       0.00000000
O        1.18962860       0.66542435       0.47349167
C        2.38314247       0.04439735       0.48934937
O        2.64902687      -1.09032822       0.14597702
O        3.27296257       0.94346428       0.94366074
C        4.65672874       0.49890709       1.01306915
H       -0.43287086       0.44918442      -0.90281296
H        0.46517944      -0.97406578      -0.28182220
H       -0.64435768      -0.14319038       0.83949661
H        4.82419777      -0.42214775       0.42664337
H        5.32242012       1.30742836       0.68733215
H        4.97128868       0.32667732       2.12028885
12
Properties=species:S:1:pos:R:3 name=DMC mapped_smiles="[C:1]([O:2][C:3](=[O:4])[O:5][C:6]([H:10])([H:11])[H:12])([H:7])([H:8])[H:9]" pbc="F F F"
C        0.00000000       0.00000000       0.00000000
O       -0.44422531       0.53443718      -1.28841782
C       -1.59941483       1.22088432      -1.37213516
O       -2.40907669       1.30268478      -0.45824814
O       -1.76310730       1.52411461      -2.70391083
C       -2.96259689       2.35960960      -3.08169937
H        0.41207123       0.80877876       0.61260605
H       -0.83465958      -0.44943047       0.58113098
H        0.79673386      -0.73731041      -0.05504608
H       -2.62879181       2.99070549      -3.88695908
H       -3.77321625       1.72887421      -3.37151337
H       -3.18664169       2.99891281      -2.21342087
12
Properties=species:S:1:pos:R:3 name=DMC mapped_smiles="[C:1]([O:2][C:3](=[O:4])[O:5][C:6]([H:10])([H:11])[H:12])([H:7])([H:8])[H:9]" pbc="F F F"
C        0.00000000       0.00000000       0.00000000
O        0.47999954      -0.72634315      -1.17620850
C       -0.29508018      -0.63680840      -2.35803223
O       -1.38295174      -0.11649132      -2.59527969
O        0.48338699      -1.26538658      -3.28210068
C        0.05753708      -1.38852501      -4.66789246
H       -0.47963905       0.91985512      -0.36596298
H       -0.87164497      -0.62486649       0.19085693
H        0.70130348       0.00765610       0.78329086
H       -0.92188072      -1.87375259      -4.64274788
H       -0.01400185      -0.40420341      -5.10960197
H        0.93468094      -1.85186195      -5.07098389
12
Properties=species:S:1:pos:R:3 name=DMC mapped_smiles="[C:1]([O:2][C:3](=[O:4])[O:5][C:6]([H:10])([H:11])[H:12])([H:7])([H:8])[H:9]" pbc="F F F"
C        0.00000000       0.00000000       0.00000000
O       -0.68720818      -1.18426132       0.58986092
C       -1.99847031      -1.07970810       1.07265663
O       -2.53568840      -0.01440811       1.12983894
O       -2.41283607      -2.29284286       1.45236397
C       -3.74334145      -2.43714333       1.97519875
H        1.06824684      -0.32791138      -0.15383339
H       -0.42984390       0.22899246      -0.96550560
H       -0.15645218       0.81500626       0.62752914
H       -4.37027931      -2.01937866       1.21750450
H       -4.03949928      -3.49311256       2.11287498
H       -3.78687859      -1.97359085       2.97979927
12
Properties=species:S:1:pos:R:3 name=DMC mapped_smiles="[C:1]([O:2][C:3](=[O:4])[O:5][C:6]([H:10])([H:11])[H:12])([H:7])([H:8])[H:9]" pbc="F F F"
C       -6.56293488       0.55735779      -0.47830772
O       -5.91539955       0.51798058       0.80023956
C       -4.55851936       0.48470116       0.82489777
O       -3.83982468       0.31999207      -0.15873337
O       -4.13413429       0.62986755       2.06232071
C       -2.68422699       0.65357399       2.27355957
H       -7.66550636       0.54003716      -0.30770874
H       -6.21186638       1.37916374      -1.02926254
H       -6.20348740      -0.29969978      -0.99573708
H       -2.49202728       1.70886612       2.62122345
H       -2.44003296       0.01504707       3.07367706
H       -2.21619415       0.39507103       1.36264229
12
Properties=species:S:1:pos:R:3 name=DMC mapped_smiles="[C:1]([O:2][C:3](=[O:4])[O:5][C:6]([H:10])([H:11])[H:12])([H:7])([H:8])[H:9]" pbc="F F F"
C        0.00000000       0.00000000       0.00000000
O        0.84955788      -0.89739418      -0.82215118
C        0.72291374      -0.81991768      -2.19982147
O       -0.03231621      -0.15299606      -2.86378288
O        1.75286674      -1.56774330      -2.77209473
C        1.69273949      -1.63093758      -4.26316833
H       -0.40096855      -0.64487267       0.78648758
H        0.68824577       0.72224998       0.44142914
H       -0.92728233       0.35680962      -0.47835159
H        0.81855202      -1.18383026      -4.66901207
H        2.61831856      -1.25653839      -4.75807762
H        1.60567284      -2.68711281      -4.46522331
12
Properties=species:S:1:pos:R:3 name=DMC mapped_smiles="[C:1]([O:2][C:3](=[O:4])[O:5][C:6]([H:10])([H:11])[H:12])([H:7])([H:8])[H:9]" pbc="F F F"
C        1.58135986       2.03382492      -2.79645920
O        1.41634750       0.83303070      -3.61952782
C        1.15801620      -0.32960129      -2.92555237
O        0.96528816      -0.42859459      -1.71648026
O        1.31063271      -1.34916306      -3.80796432
C        0.55699348      -2.62840271      -3.51587677
H        1.76257324       1.74033737      -1.74354362
H        2.49267197       2.58398819      -3.14242744
H        0.69022179       2.67719269      -2.92721748
H       -0.49085236      -2.35664558      -3.55936623
H        0.81011009      -3.49074936      -4.18705177
H        0.76041222      -2.85634804      -2.49761391
12
Properties=species:S:1:pos:R:3 name=DMC mapped_smiles="[C:1]([O:2][C:3](=[O:4])[O:5][C:6]([H:10])([H:11])[H:12])([H:7])([H:8])[H:9]" pbc="F F F"
C        0.00000000       0.00000000       0.00000000
O        0.34294891       0.96780777      -1.07777786
C        1.29173660       0.53272247      -1.96390724
O        1.78268814      -0.60209274      -2.05119896
O        1.55387497       1.51906586      -2.86284828
C        2.66535568       1.27839661      -3.78523445
H       -1.01895142       0.31371307       0.34214973
H        0.25860977      -1.07888794      -0.25852966
H        0.62177277       0.32424164       0.85635948
H        2.84375000       0.25060654      -3.92292976
H        2.44227982       1.77055359      -4.76275063
H        3.52183533       1.70632553      -3.36506844
12
Properties=species:S:1:pos:R:3 name=DMC mapped_smiles="[C:1]([O:2][C:3](=[O:4])[O:5][C:6]([H:10])([H:11])[H:12])([H:7])([H:8])[H:9]" pbc="F F F"
C        0.00000000       0.00000000       0.00000000
O        0.58104706       1.12942505      -0.44585228
C        1.76685715       1.11878204      -1.10031509
O        2.20840073       0.06330490      -1.58736801
O        2.29425430       2.33456039      -1.18764687
C        3.61542130       2.62722015      -1.53095245
H        0.13357925      -0.77371597      -0.71943474
H        0.52739334      -0.35288239       0.84137726
H       -1.04714966       0.06550598       0.35335922
H        3.77294540       3.71981049      -1.39270401
H        4.34412003       1.93442917      -1.09497833
H        3.81273651       2.33883286      -2.58583832
12
Properties=species:S:1:pos:R:3 name=DMC mapped_smiles="[C:1]([O:2][C:3](=[O:4])[O:5][C:6]([H:10])([H:11])[H:12])([H:7])([H:8])[H:9]" pbc="F F F"
C       -0.72425270       3.04981232      -3.11075211
O       -1.31038857       1.82534409      -3.63656998
C       -1.35472298       0.66825867      -2.83269119
O       -0.75709915       0.50442505      -1.81140518
O       -2.11095428      -0.27221298      -3.49697113
C       -2.64517593      -1.30640411      -2.68221664
H       -0.68584442       2.93359756      -2.00150681
H        0.31540108       3.22650528      -3.52129364
H       -1.43166351       3.88978195      -3.30194473
H       -2.01415253      -2.23643875      -2.73955154
H       -2.90634727      -0.97143173      -1.65887070
H       -3.62681389      -1.57436371      -3.14448929
12
Properties=species:S:1:pos:R:3 name=DMC mapped_smiles="[C:1]([O:2][C:3](=[O:4])[O:5][C:6]([H:10])([H:11])[H:12])([H:7])([H:8])[H:9]" pbc="F F F"
C       -3.73211479       6.13791275       3.31394958
O       -3.26262665       5.75177002       2.00239563
C       -1.89438629       5.63060379       1.89654541
O       -1.09501457       5.65260696       2.81158066
O       -1.61634064       5.33879089       0.62739182
C       -0.23392677       5.09073639       0.19344711
H       -4.74628067       6.47961426       3.10710526
H       -3.77357292       5.32879257       4.04819870
H       -3.01779938       6.84630966       3.81945801
H       -0.33621597       4.40785217      -0.63578796
H        0.17846680       6.01753616      -0.20013046
H        0.41695786       4.73326111       0.98582458
12
Properties=species:S:1:pos:R:3 name=DMC mapped_smiles="[C:1]([O:2][C:3](=[O:4])[O:5][C:6]([H:10])([H:11])[H:12])([H:7])([H:8])[H:9]" pbc="F F F"
C       -0.52095795      -8.47150230       1.99486351
O        0.43484879      -8.05793762       3.00770569
C        0.14693451      -7.20518684       3.94327354
O       -0.96613693      -6.68371773       4.01312447
O        1.13703537      -7.05177498       4.83915138
C        0.97153473      -6.24580574       5.92773819
H       -0.35578537      -7.84059143       1.05945015
H       -0.27377319      -9.49908447       1.77033424
H       -1.58226013      -8.51353645       2.42867851
H        1.96821976      -6.09735107       6.40732384
H        0.48170471      -5.32270813       5.61131096
H        0.36479950      -6.80571747       6.63006783
12
Properties=species:S:1:pos:R:3 name=DMC mapped_smiles="[C:1]([O:2][C:3](=[O:4])[O:5][C:6]([H:10])([H:11])[H:12])([H:7])([H:8])[H:9]" pbc="F F F"
C       -0.14219475       1.52283478      -4.04737473
O        1.20860291       1.27753448      -3.78427887
C        1.55232620       0.85325241      -2.54843140
O        0.80378723       0.41531372      -1.78190613
O        2.93123627       1.07188797      -2.50199699
C        3.67451286       0.55537033      -1.37568092
H       -0.27281761       2.46474075      -4.53410149
H       -0.42175102       0.81580353      -4.88597870
H       -0.70802116       1.19035339      -3.19357872
H        3.11836624       0.71419144      -0.42984390
H        3.93955803      -0.47661972      -1.55043793
H        4.64486122       1.08622360      -1.26766586
12
Properties=species:S:1:pos:R:3 name=DMC mapped_smiles="[C:1]([O:2][C:3](=[O:4])[O:5][C:6]([H:10])([H:11])[H:12])([H:7])([H:8])[H:9]" pbc="F F F"
C        0.00000000       0.00000000       0.00000000
O        0.43728065      -0.08584404      -1.35069466
C        0.08353233       0.97672081      -2.13018608
O       -0.60721016       1.93409729      -1.86907387
O        0.75164604       0.82368660      -3.25743866
C        0.57104301       1.71660042      -4.32817268
H       -0.53936577      -0.88642693       0.27356339
H        0.89937782       0.13225174       0.61425591
H       -0.57021141       0.95446014       0.19437599
H       -0.27183723       1.32451057      -4.96436310
H        0.45481300       2.69209862      -3.91159248
H        1.46943855       1.70297432      -4.98109055
12
Properties=species:S:1:pos:R:3 name=DMC mapped_smiles="[C:1]([O:2][C:3](=[O:4])[O:5][C:6]([H:10])([H:11])[H:12])([H:7])([H:8])[H:9]" pbc="F F F"
C        7.73486519      -6.30721664       0.14245987
O        8.56534386      -5.17353439       0.45234680
C        7.97880745      -4.06855392       0.93972778
O        6.73799324      -4.01673889       1.08858109
O        8.83774376      -3.03868484       1.11427689
C        8.45023537      -1.79668045       1.89374924
H        8.49723244      -7.05886841      -0.14459229
H        7.18069839      -6.71531296       1.02178574
H        6.95771027      -6.03504944      -0.58323288
H        9.28804207      -1.32928848       2.49785995
H        8.21793556      -1.05039597       1.13486862
H        7.55630875      -2.07232285       2.54370117
12
Properties=species:S:1:pos:R:3 name=DMC mapped_smiles="[C:1]([O:2][C:3](=[O:4])[O:5][C:6]([H:10])([H:11])[H:12])([H:7])([H:8])[H:9]" pbc="F F F"
C       -2.29288483       1.82537270       2.58956146
O       -1.89289284       3.00435066       1.90158463
C       -1.09317780       2.83231544       0.80091858
O       -0.74178696       1.76231956       0.37731552
O       -0.67790794       4.06062126       0.35702515
C       -0.03780556       4.08079338      -0.92507553
H       -2.76326180       2.12050056       3.49825668
H       -2.92529678       1.25482178       1.91794205
H       -1.33128357       1.28009605       2.79648209
H       -0.16582298       3.12470436      -1.48231506
H       -0.59658623       4.86316490      -1.39769363
H        0.98729515       4.49776459      -0.77283859
12
Properties=species:S:1:pos:R:3 name=DMC mapped_smiles="[C:1]([O:2][C:3](=[O:4])[O:5][C:6]([H:10])([H:11])[H:12])([H:7])([H:8])[H:9]" pbc="F F F"
C        1.32630348      -5.19946861       0.63283920
O        1.67786407      -6.05401802      -0.54301834
C        1.71758461      -7.41346169      -0.47322845
O        1.42973709      -8.04669380       0.55677032
O        2.04153633      -7.90661049      -1.62903595
C        2.12075806      -9.27186871      -1.67116165
H        1.04505539      -4.17307472       0.35504913
H        0.61525345      -5.69945335       1.28648376
H        2.12556458      -5.08084297       1.27135849
H        1.18081856      -9.72238827      -2.09328079
H        2.95758247      -9.52820492      -2.30550003
H        2.33867073      -9.80069256      -0.72545624
12
Properties=species:S:1:pos:R:3 name=DMC mapped_smiles="[C:1]([O:2][C:3](=[O:4])[O:5][C:6]([H:10])([H:11])[H:12])([H:7])([H:8])[H:9]" pbc="F F F"
C       -0.52266312       3.15626144      -3.34735489
O       -1.17772484       1.90589523      -3.82022095
C       -1.11577034       0.81671906      -3.04413605
O       -0.58783340       0.71808243      -1.95782852
O       -2.01006889      -0.11248016      -3.60318756
C       -1.99534607      -1.39741898      -3.03699493
H        0.43288040       2.93297195      -3.04713058
H       -0.50116730       3.81101227      -4.17303467
H       -1.06842613       3.50072861      -2.50105667
H       -2.36367035      -1.35971069      -1.95271683
H       -2.64655495      -2.00620270      -3.61440277
H       -0.93953705      -1.82961273      -3.11476898
12
Properties=species:S:1:pos:R:3 name=DMC mapped_smiles="[C:1]([O:2][C:3](=[O:4])[O:5][C:6]([H:10])([H:11])[H:12])([H:7])([H:8])[H:9]" pbc="F F F"
C        1.91395187       3.40150642      -1.57527733
O        2.32737732       2.20319557      -2.29914093
C        1.55920792       1.09499741      -2.17532539
O        0.52241516       1.00473213      -1.53802681
O        2.22207260       0.07796669      -2.74924278
C        1.59838867      -1.22674751      -2.59006310
H        1.50784874       3.21926880      -0.59850883
H        2.81637955       4.01421738      -1.43523598
H        1.20589447       3.91516113      -2.21463394
H        2.05898666      -1.94058990      -3.20921516
H        1.68334007      -1.47423935      -1.50094986
H        0.50894547      -1.04604530      -2.83208656
12
Properties=species:S:1:pos:R:3 name=DMC mapped_smiles="[C:1]([O:2][C:3](=[O:4])[O:5][C:6]([H:10])([H:11])[H:12])([H:7])([H:8])[H:9]" pbc="F F F"
C        5.35989952       2.03720093       0.54933548
O        5.67292595       0.67297363       0.94336700
C        5.29802322      -0.32521057       0.12177277
O        4.77266502      -0.27869034      -0.98556900
O        5.50242233      -1.45055771       0.77273178
C        5.30110550      -2.76321030       0.17207718
H        4.29133034       2.01121140       0.25395966
H        5.46974564       2.68904114       1.37588501
H        6.13530350       2.32699966      -0.20970917
H        6.22084808      -3.08523178      -0.38167953
H        5.00370598      -3.47815704       0.91315079
H        4.46713257      -2.64939117      -0.51655960
12
Properties=species:S:1:pos:R:3 name=DMC mapped_smiles="[C:1]([O:2][C:3](=[O:4])[O:5][C:6]([H:10])([H:11])[H:12])([H:7])([H:8])[H:9]" pbc="F F F"
C        0.00000000       0.00000000       0.00000000
O        0.83407593       0.02543259      -1.21035767
C        1.12890816      -1.19900131      -1.72050285
O        0.52410316      -2.22651672      -1.54036522
O        2.11577034      -0.98946762      -2.47166634
C        2.35706139      -1.99630356      -3.43710518
H       -0.26199150      -0.99422073       0.24252892
H        0.42512703       0.50666809       0.83866692
H       -0.90679550       0.45809555      -0.21110725
H        2.64228249      -1.50666809      -4.33170891
H        3.16015434      -2.68160248      -3.06165504
H        1.43110847      -2.62582397      -3.58880234
12
Properties=species:S:1:pos:R:3 name=DMC mapped_smiles="[C:1]([O:2][C:3](=[O:4])[O:5][C:6]([H:10])([H:11])[H:12])([H:7])([H:8])[H:9]" pbc="F F F"
C        0.00000000       0.00000000       0.00000000
O        1.18316650       0.67436409      -0.47548866
C        2.30554199      -0.02827263      -0.25395775
O        2.48753738      -0.96346855       0.54032516
O        3.20195007       0.59833717      -1.00568771
C        4.48070908      -0.06511116      -1.21118164
H       -0.87971878       0.57285118      -0.32935143
H        0.02001953      -1.05593300      -0.34470367
H        0.12797928       0.02908134       1.11078072
H        4.35370255      -1.15138054      -1.04456902
H        4.79816818       0.11029625      -2.24370384
H        5.27163696       0.30835724      -0.59181213
12
Properties=species:S:1:pos:R:3 name=DMC mapped_smiles="[C:1]([O:2][C:3](=[O:4])[O:5][C:6]([H:10])([H:11])[H:12])([H:7])([H:8])[H:9]" pbc="F F F"
C       -6.51223183       0.36394691       3.05979156
O       -6.57933998       0.44678116       4.50205040
C       -5.99170876      -0.49380493       5.27713394
O       -5.43473244      -1.46184540       4.80900764
O       -6.12567329      -0.07939911       6.64121056
C       -5.89686012      -1.13088989       7.57965279
H       -7.09347725      -0.52758598       2.76688576
H       -7.10296059       1.19956398       2.61657906
H       -5.49213600       0.45781898       2.78937149
H       -4.99777412      -1.64232826       7.31123543
H       -5.67545509      -0.74810028       8.57105446
H       -6.68947029      -1.91220284       7.58286476
12
Properties=species:S:1:pos:R:3 name=DMC mapped_smiles="[C:1]([O:2][C:3](=[O:4])[O:5][C:6]([H:10])([H:11])[H:12])([H:7])([H:8])[H:9]" pbc="F F F"
C        4.85785866       4.60146904       4.93227959
O        3.45563507       4.20538139       5.11756516
C        2.78534317       3.64029121       4.01046181
O        3.17070198       3.44230080       2.86566544
O        1.47385979       3.34180260       4.36831856
C        0.49446487       3.03008461       3.31891632
H        5.41934586       3.69824600       4.90673637
H        5.01378059       5.04175377       3.94445038
H        5.08800697       5.17279816       5.84921265
H        0.29158592       3.97416496       2.91252327
H        0.92092705       2.33735466       2.60986137
H       -0.43708992       2.60225677       3.87355614
12
Properties=species:S:1:pos:R:3 name=DMC mapped_smiles="[C:1]([O:2][C:3](=[O:4])[O:5][C:6]([H:10])([H:11])[H:12])([H:7])([H:8])[H:9]" pbc="F F F"
C        0.00000000       0.00000000       0.00000000
O        0.94203377      -1.13267517       0.17801476
C        0.88370705      -2.10080338      -0.80236244
O        0.00157738      -2.18479538      -1.67743492
O        1.97300148      -2.92528534      -0.64344215
C        2.21810341      -3.81064224      -1.79194832
H       -1.10559464      -0.25177002       0.12310600
H        0.16922188       0.80541611       0.74943542
H        0.12087059       0.47135544      -0.94353676
H        1.81796455      -3.39858246      -2.69770622
H        3.37801933      -4.05096054      -1.89080238
H        1.85502434      -4.80156326      -1.65899277
12
Properties=species:S:1:pos:R:3 name=DMC mapped_smiles="[C:1]([O:2][C:3](=[O:4])[O:5][C:6]([H:10])([H:11])[H:12])([H:7])([H:8])[H:9]" pbc="F F F"
C       -0.63526726       3.16786575      -1.01876831
O       -0.52707100       2.58716774      -2.39105988
C       -0.70816612       1.23881340      -2.67881584
O       -0.55328178       0.40911484      -1.74687004
O       -0.94201088       1.03910828      -4.02330780
C       -1.53081894      -0.27233315      -4.34849548
H       -1.66154671       3.04300880      -0.85480690
H       -0.07838058       2.42806244      -0.42980957
H       -0.29409409       4.23009872      -0.94855690
H       -2.07644463      -0.58713341      -3.44435310
H       -2.39041138      -0.08090019      -5.05513954
H       -0.85698891      -1.01206207      -4.79203415
12
Properties=species:S:1:pos:R:3 name=DMC mapped_smiles="[C:1]([O:2][C:3](=[O:4])[O:5][C:6]([H:10])([H:11])[H:12])([H:7])([H:8])[H:9]" pbc="F F F"
C        0.00000000       0.00000000       0.00000000
O        0.10036469      -1.03467369       1.02909470
C        1.21112442      -0.97193336       1.92054749
O        1.93455124      -0.01229286       2.07662964
O        1.21608734      -2.12269402       2.68682861
C        2.12396622      -2.15587807       3.85796738
H       -0.47617340       0.88920403       0.50361252
H        0.98342514       0.21813011      -0.34422302
H       -0.61749268      -0.28180313      -0.85640335
H        3.20752716      -1.94510078       3.60366821
H        1.78598404      -1.31674385       4.51610947
H        1.97902298      -3.10122108       4.38016129
12
Properties=species:S:1:pos:R:3 name=DMC mapped_smiles="[C:1]([O:2][C:3](=[O:4])[O:5][C:6]([H:10])([H:11])[H:12])([H:7])([H:8])[H:9]" pbc="F F F"
C        0.00000000       0.00000000       0.00000000
O        1.36530495       0.13433456       0.65288162
C        1.84863091       1.35042953       0.58430099
O        1.31214523       2.33672333       0.07256317
O        3.07854271       1.42065048       1.14077377
C        3.72012901       2.73780060       1.06494522
H       -0.29491615       0.97352600      -0.38177490
H        0.26288605      -0.57119751      -0.86337280
H       -0.76988220      -0.49265289       0.60065079
H        3.92210197       2.99284363      -0.00040436
H        3.03591728       3.47576904       1.42477036
H        4.64293480       2.79581833       1.66157913
12
Properties=species:S:1:pos:R:3 name=DMC mapped_smiles="[C:1]([O:2][C:3](=[O:4])[O:5][C:6]([H:10])([H:11])[H:12])([H:7])([H:8])[H:9]" pbc="F F F"
C        0.00000000       0.00000000       0.00000000
O       -1.12409210      -0.16283989      -0.87729263
C       -1.74669075       0.92409706      -1.36361313
O       -1.35824013       2.08916664      -1.48436356
O       -2.89001656       0.39021301      -1.90029335
C       -3.72841072       1.18885994      -2.82234383
H       -0.22452545       0.79919052       0.74637413
H        0.27012062      -0.95734024       0.32991409
H        0.80452919       0.28459740      -0.68383408
H       -3.18077278       2.11011887      -2.96145248
H       -3.91833687       0.61480904      -3.73105049
H       -4.67848396       1.33987045      -2.30624008
