12
Properties=species:S:1:pos:R:3 name=DMC mapped_smiles="[C:1]([O:2][C:3](=[O:4])[O:5][C:6]([H:10])([H:11])[H:12])([H:7])([H:8])[H:9]" pbc="F F F"
C        5.93673134       2.98157883      -5.57932854
O        5.96852493       4.36422348      -5.95782661
C        4.83820724       5.10944939      -5.58948135
O        3.81935692       4.74458313      -5.00272942
O        4.95274925       6.40308189      -5.99450684
C        3.90192223       7.24899673      -5.75057793
H        5.31271172       2.89424896      -4.67300797
H        5.48564911       2.40353775      -6.41137886
H        6.91766739       2.58582115      -5.44857979
H        3.93746758       8.02337837      -6.57332802
H        2.93717766       6.76498795      -5.78338432
H        4.12710190       7.74622536      -4.76388931
12
Properties=species:S:1:pos:R:3 name=DMC mapped_smiles="[C:1]([O:2][C:3](=[O:4])[O:5][C:6]([H:10])([H:11])[H:12])([H:7])([H:8])[H:9]" pbc="F F F"
C        1.03653145      -3.47332764       1.39344025
O        0.40835762      -3.00368118       2.65660477
C       -0.40249634      -1.95173264       2.52182770
O       -0.82441330      -1.51098251       1.49769211
O       -0.54812813      -1.45137787       3.83177185
C       -1.54462433      -0.30683517       3.92976761
H        1.37439919      -2.63759613       0.77254486
H        1.93293953      -4.01586533       1.65216827
H        0.34535027      -4.14250183       0.91687393
H       -2.49419212      -0.76130295       3.70525742
H       -1.61659622       0.21498489       4.89337158
H       -1.36229706       0.43402863       3.11663055
12
Properties=species:S:1:pos:R:3 name=DMC mapped_smiles="[C:1]([O:2][C:3](=[O:4])[O:5][C:6]([H:10])([H:11])[H:12])([H:7])([H:8])[H:9]" pbc="F F F"
C       -2.67375565       2.24257278       0.08277512
O       -3.48958397       1.56376648       1.00387955
C       -2.92797470       0.37957382       1.37237930
O       -1.89275360      -0.05162811       0.92292786
O       -3.71371269      -0.26990128       2.24108505
C       -2.99659920      -1.29079056       3.05372620
H       -1.58143616       2.02154160       0.05426025
H       -3.13035965       1.95455170      -0.89126587
H       -2.77308655       3.34252548       0.24846268
H       -2.05829620      -0.90583420       3.38132477
H       -3.55163002      -1.69971657       3.92818451
H       -2.83727074      -2.13281441       2.35353088
12
Properties=species:S:1:pos:R:3 name=DMC mapped_smiles="[C:1]([O:2][C:3](=[O:4])[O:5][C:6]([H:10])([H:11])[H:12])([H:7])([H:8])[H:9]" pbc="F F F"
C        2.93416214      -6.21533775      -3.58439827
O        1.64989090      -6.61741447      -4.22951889
C        0.55748749      -5.77373695      -4.29141045
O        0.63856506      -4.59395599      -3.92775536
O       -0.53389359      -6.49467087      -4.63896751
C       -1.84154129      -5.87660980      -4.58069229
H        3.60738754      -7.09018898      -3.55504990
H        3.45899200      -5.30725479      -4.04440498
H        2.61185837      -6.01347351      -2.58763885
H       -2.05883408      -5.83297157      -3.48253250
H       -1.74130630      -4.79992104      -4.92383385
H       -2.60216522      -6.48014641      -5.09347153
12
Properties=species:S:1:pos:R:3 name=DMC mapped_smiles="[C:1]([O:2][C:3](=[O:4])[O:5][C:6]([H:10])([H:11])[H:12])([H:7])([H:8])[H:9]" pbc="F F F"
C        5.28201103       0.78624916      -1.84480858
O        5.07593346       0.52379799      -3.23223305
C        4.08174324       1.28895378      -3.90334511
O        3.29525185       1.93273926      -3.31072426
O        4.10439873       1.05150986      -5.23386574
C        3.09435844       1.67319298      -6.00166512
H        5.82842636       1.75025177      -1.69129753
H        4.31432533       0.82820320      -1.27277565
H        6.01556396       0.03615189      -1.50106621
H        3.43264580       2.70212364      -6.22737312
H        3.08398438       1.24035454      -7.00370216
H        2.15392494       1.68101311      -5.36701393
12
Properties=species:S:1:pos:R:3 name=DMC mapped_smiles="[C:1]([O:2][C:3](=[O:4])[O:5][C:6]([H:10])([H:11])[H:12])([H:7])([H:8])[H:9]" pbc="F F F"
C       -1.88188553       2.29249001      -2.87236977
O       -1.50170135       2.34915352      -4.31024551
C       -1.17388725       3.53678894      -4.89595222
O       -0.93187714       4.61467552      -4.36851501
O       -0.94954300       3.20737457      -6.19102669
C       -0.53993797       4.26213074      -7.07135582
H       -2.92488670       1.95561218      -2.93024254
H       -1.28222275       1.59431648      -2.32831001
H       -1.79943085       3.25434303      -2.33393288
H       -1.03733635       5.20091820      -6.80220604
H        0.47896194       4.41964340      -7.05854416
H       -0.84378624       4.02555656      -8.04286766
12
Properties=species:S:1:pos:R:3 name=DMC mapped_smiles="[C:1]([O:2][C:3](=[O:4])[O:5][C:6]([H:10])([H:11])[H:12])([H:7])([H:8])[H:9]" pbc="F F F"
C       -4.94574738       5.69390106       2.54472923
O       -4.18803406       4.86502075       3.43465042
C       -3.26379013       4.07866287       2.78545570
O       -3.10424042       4.01214981       1.55191231
O       -2.38113403       3.52519608       3.64545631
C       -1.35745621       2.62355423       3.08250999
H       -5.39487839       4.96609116       1.89165115
H       -5.76849365       6.18565750       3.12954521
H       -4.36684036       6.29236603       1.90795135
H       -0.61471176       3.14666367       2.46183205
H       -0.88056183       2.10211945       3.92197418
H       -1.84154510       1.90644836       2.43975639
12
Properties=species:S:1:pos:R:3 name=DMC mapped_smiles="[C:1]([O:2][C:3](=[O:4])[O:5][C:6]([H:10])([H:11])[H:12])([H:7])([H:8])[H:9]" pbc="F F F"
C        3.56099319       4.80810165      -2.37850571
O        4.03776932       4.44351196      -3.69907379
C        3.97827530       3.18008423      -4.10602188
O        3.41609192       2.28264999      -3.45965958
O        4.51049805       3.11008453      -5.34119415
C        4.40827179       1.81827164      -6.03447723
H        3.83716583       5.85938644      -2.27583313
H        2.50173569       4.59963989      -2.45302582
H        4.13439178       4.24226379      -1.62992477
H        3.48242950       1.40357208      -5.83045578
H        4.69970703       1.96870804      -7.09069061
H        5.13117599       1.30311584      -5.51125717
12
Properties=species:S:1:pos:R:3 name=DMC mapped_smiles="[C:1]([O:2][C:3](=[O:4])[O:5][C:6]([H:10])([H:11])[H:12])([H:7])([H:8])[H:9]" pbc="F F F"
C       -1.71817017       1.02936172       4.42428017
O       -3.01949310       1.61369705       4.34457588
C       -3.93535995       0.89949417       3.51374245
O       -3.64704514      -0.06196976       2.82349014
O       -5.12711334       1.50465775       3.63349342
C       -6.02106857       1.20525360       2.49575806
H       -1.58708191       0.49771881       5.32406044
H       -1.53665161       0.34459305       3.60665894
H       -1.02480698       1.87686539       4.31497765
H       -5.47871017       1.40890884       1.54728127
H       -6.20642090       0.17490005       2.40460396
H       -6.99476242       1.64760971       2.59446526
12
Properties=species:S:1:pos:R:3 name=DMC mapped_smiles="[C:1]([O:2][C:3](=[O:4])[O:5][C:6]([H:10])([H:11])[H:12])([H:7])([H:8])[H:9]" pbc="F F F"
C        0.51467133      -3.20619774      -9.93966103
O       -0.25430107      -2.41641617     -10.82778358
C       -0.59333229      -1.14932060     -10.50074959
O       -0.25023651      -0.57532310      -9.52567482
O       -1.53555870      -0.75359154     -11.43933296
C       -2.28943253       0.37352943     -11.08926582
H        1.28598022      -3.61815453     -10.52727699
H        0.85395432      -2.69668388      -9.02482033
H       -0.12312317      -4.09629250      -9.81917763
H       -2.07172775       1.22852898     -11.77454567
H       -3.29488754       0.10825920     -11.17442513
H       -2.10841370       0.61141014     -10.02623177
12
Properties=species:S:1:pos:R:3 name=DMC mapped_smiles="[C:1]([O:2][C:3](=[O:4])[O:5][C:6]([H:10])([H:11])[H:12])([H:7])([H:8])[H:9]" pbc="F F F"
C       -4.57155609       2.58073616      -3.55882454
O       -4.38095093       1.19907951      -3.71229172
C       -4.63200378       0.46632385      -2.60963249
O       -4.79526901       0.81378746      -1.42586899
O       -4.78049088      -0.87324333      -3.05259323
C       -5.05674362      -1.85727882      -2.08663559
H       -5.47943497       2.72459984      -2.98684502
H       -3.64368820       2.96364975      -3.03078842
H       -4.69175339       3.02040291      -4.53141975
H       -5.98663330      -1.66058159      -1.54362869
H       -5.16959763      -2.87850380      -2.61971664
H       -4.16857910      -1.90254974      -1.47420120
12
Properties=species:S:1:pos:R:3 name=DMC mapped_smiles="[C:1]([O:2][C:3](=[O:4])[O:5][C:6]([H:10])([H:11])[H:12])([H:7])([H:8])[H:9]" pbc="F F F"
C        6.73976517      -3.71467018      -0.46223450
O        7.31835747      -3.95557785       0.78813171
C        8.03125572      -3.00905037       1.41250229
O        8.15686226      -1.82141495       1.12888718
O        8.60693932      -3.67402267       2.41915894
C        9.77840996      -3.05349159       2.95111847
H        6.29488754      -2.72104263      -0.51234055
H        7.54521179      -3.63999367      -1.26663208
H        6.03155708      -4.46470451      -0.80010986
H        9.68223381      -1.92734337       2.88269424
H        9.90321541      -3.30841827       4.00160599
H       10.65440559      -3.36879730       2.43231201
12
Properties=species:S:1:pos:R:3 name=DMC mapped_smiles="[C:1]([O:2][C:3](=[O:4])[O:5][C:6]([H:10])([H:11])[H:12])([H:7])([H:8])[H:9]" pbc="F F F"
C      -10.20758820       5.15027618      -0.96649551
O       -9.44181061       4.34230804       0.00968170
C       -8.07646179       4.31142235      -0.21224213
O       -7.55249023       4.77993774      -1.16961670
O       -7.48184204       3.65445518       0.81375122
C       -6.00565720       3.60131073       0.75138474
H       -9.69708252       6.12587929      -1.01573181
H      -10.10855865       4.58482170      -1.93457031
H      -11.20935440       5.14231873      -0.62511826
H       -5.71158600       3.02035713      -0.13146210
H       -5.60243988       4.59050560       0.80221176
H       -5.75989532       3.01994514       1.65343094
12
Properties=species:S:1:pos:R:3 name=DMC mapped_smiles="[C:1]([O:2][C:3](=[O:4])[O:5][C:6]([H:10])([H:11])[H:12])([H:7])([H:8])[H:9]" pbc="F F F"
C       -2.35215569       5.65673637      -8.30267715
O       -2.12588692       4.83939552      -7.18948936
C       -1.50997162       5.42098808      -6.18666267
O       -1.00650597       6.53343773      -6.15767097
O       -1.54455757       4.56183434      -5.12568665
C       -0.97220802       5.05240822      -3.91620064
H       -2.71565628       6.59427452      -7.90994644
H       -1.42086220       5.82578850      -8.83602905
H       -3.18525314       5.15796852      -8.96287537
H       -1.64735603       5.72679329      -3.38183594
H       -0.61312675       4.18240547      -3.20016670
H       -0.13795090       5.66958809      -4.23214912
12
Properties=species:S:1:pos:R:3 name=DMC mapped_smiles="[C:1]([O:2][C:3](=[O:4])[O:5][C:6]([H:10])([H:11])[H:12])([H:7])([H:8])[H:9]" pbc="F F F"
C       -0.26430130      -3.19777107      -2.52275658
O       -1.00518417      -3.96677589      -1.52407837
C       -0.41953659      -4.29713631      -0.31247139
O        0.74587250      -4.03856087       0.01081276
O       -1.34364510      -4.96017647       0.38089180
C       -1.09190750      -5.15629005       1.74505043
H        0.27675629      -2.39373207      -2.01242256
H        0.40568924      -3.90827370      -3.13549423
H       -1.09307671      -2.82901955      -3.19261742
H       -2.05797386      -5.25210762       2.31554985
H       -0.53364563      -6.10563087       1.85816383
H       -0.50939178      -4.35656166       2.22897148
12
Properties=species:S:1:pos:R:3 name=DMC mapped_smiles="[C:1]([O:2][C:3](=[O:4])[O:5][C:6]([H:10])([H:11])[H:12])([H:7])([H:8])[H:9]" pbc="F F F"
C       -4.65088654       1.42129898      -5.51955223
O       -5.60252380       0.31937599      -5.58732796
C       -5.58048820      -0.59600830      -4.54494286
O       -4.72795486      -0.76943398      -3.70207596
O       -6.75675392      -1.27336884      -4.50133324
C       -7.30555916      -1.81596375      -3.25304222
H       -4.61228561       1.73222160      -4.49936867
H       -3.70529175       1.03780556      -5.70847702
H       -5.02371216       2.23166656      -6.14375877
H       -7.84205246      -2.75813293      -3.41583443
H       -6.48540306      -1.95667648      -2.53164673
H       -8.04056168      -1.10984802      -2.91558075
12
Properties=species:S:1:pos:R:3 name=DMC mapped_smiles="[C:1]([O:2][C:3](=[O:4])[O:5][C:6]([H:10])([H:11])[H:12])([H:7])([H:8])[H:9]" pbc="F F F"
C       -4.44283867       0.56479263      -0.27250671
O       -4.15932655      -0.73363686      -0.81229782
C       -3.52234459      -0.76725960      -2.00533295
O       -3.04681778       0.18366814      -2.51494598
O       -3.69728661      -1.96052361      -2.55717278
C       -2.96335602      -2.36692619      -3.74820137
H       -5.42926025       0.79315567      -0.69107056
H       -4.59182549       0.45400429       0.81639862
H       -3.72255135       1.32002258      -0.60252380
H       -3.47845650      -3.29195976      -4.03110123
H       -3.05934143      -1.62109947      -4.51167488
H       -1.88053703      -2.56048393      -3.47058487
12
Properties=species:S:1:pos:R:3 name=DMC mapped_smiles="[C:1]([O:2][C:3](=[O:4])[O:5][C:6]([H:10])([H:11])[H:12])([H:7])([H:8])[H:9]" pbc="F F F"
C       -0.87032127       0.98947144       3.69515038
O       -1.02292824       2.31492996       3.07817459
C       -0.91207123       2.47906876       1.72358704
O       -0.46426010       1.72528839       0.85013390
O       -1.58153725       3.69872856       1.51723289
C       -1.65723228       4.16220665       0.12641335
H        0.11767769       0.55887222       3.49308586
H       -1.16690636       1.05092049       4.74182701
H       -1.52826881       0.30320549       3.12387085
H       -0.67032433       3.94574165      -0.25110054
H       -2.43424797       3.54023743      -0.39717674
H       -1.90574837       5.30713654       0.13776970
12
Properties=species:S:1:pos:R:3 name=DMC mapped_smiles="[C:1]([O:2][C:3](=[O:4])[O:5][C:6]([H:10])([H:11])[H:12])([H:7])([H:8])[H:9]" pbc="F F F"
C       -2.19665527      -3.13931274      -4.34469604
O       -2.18426132      -4.01066589      -3.13473892
C       -1.51034164      -3.48122406      -2.08695221
O       -0.49209595      -2.85498428      -2.22040176
O       -2.10562897      -3.83632660      -0.95194817
C       -1.48266983      -3.56483078       0.33683395
H       -1.34991455      -3.41307449      -4.96466064
H       -3.18144226      -3.19246674      -4.86944199
H       -2.04590988      -2.11130524      -3.93519783
H       -0.72297287      -4.29994583       0.50147629
H       -0.98273849      -2.56090546       0.33298874
H       -2.13887024      -3.63719177       1.25391197
12
Properties=species:S:1:pos:R:3 name=DMC mapped_smiles="[C:1]([O:2][C:3](=[O:4])[O:5][C:6]([H:10])([H:11])[H:12])([H:7])([H:8])[H:9]" pbc="F F F"
C        3.03517914      -3.18271637      -6.44933319
O        3.77777100      -2.02624512      -6.25061226
C        3.76881790      -1.05292511      -7.12916565
O        2.96940994      -1.00523376      -8.06177521
O        4.78445816      -0.23925781      -6.80448723
C        4.92851639       0.97303772      -7.59691238
H        3.57870483      -4.06894684      -6.18511009
H        2.14284134      -3.06733704      -5.75277901
H        2.71759033      -3.16091156      -7.49411011
H        4.17585373       1.12169266      -8.30757523
H        4.92752457       1.84502029      -6.95038795
H        5.89565659       1.02418518      -8.04604149
12
Properties=species:S:1:pos:R:3 name=DMC mapped_smiles="[C:1]([O:2][C:3](=[O:4])[O:5][C:6]([H:10])([H:11])[H:12])([H:7])([H:8])[H:9]" pbc="F F F"
C       -1.65029907      -2.99845123       4.89012146
O       -0.27029419      -3.36416054       4.79872513
C        0.52362823      -2.36590195       4.36635971
O        0.24184418      -1.36129570       3.74198914
O        1.78230286      -2.88355255       4.75281525
C        3.17529488      -2.36404419       4.59396362
H       -1.99414444      -3.61096764       5.67475891
H       -1.86698341      -1.93952751       5.08666992
H       -2.09426308      -3.41578293       3.99752045
H        3.34888649      -1.60485458       5.34005356
H        3.99608040      -3.14720535       4.75201416
H        3.34769440      -2.05246353       3.51483917
12
Properties=species:S:1:pos:R:3 name=DMC mapped_smiles="[C:1]([O:2][C:3](=[O:4])[O:5][C:6]([H:10])([H:11])[H:12])([H:7])([H:8])[H:9]" pbc="F F F"
C       -3.51684380      -0.85337830      -1.78387833
O       -3.97249031       0.40288925      -1.41934586
C       -3.46886444       1.40991211      -2.12456512
O       -2.68048096       1.43566132      -3.04730225
O       -4.04224968       2.48132706      -1.52964020
C       -3.44013596       3.72797012      -1.93971634
H       -3.85951805      -0.91400146      -2.82035828
H       -2.38460159      -0.93082809      -1.75634384
H       -3.92424202      -1.65479660      -1.23223114
H       -2.38792610       3.63030624      -1.83654404
H       -3.79264450       3.97760773      -2.94600677
H       -3.81048584       4.48476791      -1.24771881
12
Properties=species:S:1:pos:R:3 name=DMC mapped_smiles="[C:1]([O:2][C:3](=[O:4])[O:5][C:6]([H:10])([H:11])[H:12])([H:7])([H:8])[H:9]" pbc="F F F"
C       -3.95452499      -1.80344582       1.17476845
O       -3.40294266      -2.28828812      -0.01626015
C       -2.27812195      -3.06388283       0.13583565
O       -1.80933762      -3.39836693       1.19787979
O       -1.87308121      -3.45146179      -1.10310555
C       -0.84333038      -4.48753929      -1.13155937
H       -4.21884537      -0.74645996       0.97687912
H       -4.83287430      -2.41004944       1.33479500
H       -3.27268982      -1.97983742       2.01715088
H       -1.22794724      -5.40952110      -0.75279045
H       -0.42697906      -4.72863388      -2.17125320
H       -0.00104523      -4.23344612      -0.49210930
12
Properties=species:S:1:pos:R:3 name=DMC mapped_smiles="[C:1]([O:2][C:3](=[O:4])[O:5][C:6]([H:10])([H:11])[H:12])([H:7])([H:8])[H:9]" pbc="F F F"
C        1.87784576      -4.16934204       0.14699173
O        1.01679802      -4.19445038      -1.00246620
C        0.20582008      -3.09572220      -1.22665024
O        0.21147537      -2.09386444      -0.56131363
O       -0.39753342      -3.37542725      -2.38968277
C       -1.45130348      -2.49936676      -2.86875343
H        1.24429321      -3.97565460       1.04616547
H        2.35987282      -5.15145874       0.15391350
H        2.53732681      -3.32722092       0.11531639
H       -1.59461594      -1.66571426      -2.16728401
H       -1.23401833      -2.21794510      -3.87443161
H       -2.27346039      -3.15557861      -2.89573669
12
Properties=species:S:1:pos:R:3 name=DMC mapped_smiles="[C:1]([O:2][C:3](=[O:4])[O:5][C:6]([H:10])([H:11])[H:12])([H:7])([H:8])[H:9]" pbc="F F F"
C       -3.10219002       6.46031189      -0.93595123
O       -3.42064857       5.82333946       0.31962776
C       -3.04323196       4.54860115       0.58083916
O       -2.82581139       3.59618187      -0.19537926
O       -2.91084290       4.50774002       1.88698769
C       -2.69413185       3.20265770       2.46798134
H       -2.00102425       6.39652443      -1.19717598
H       -3.71611214       6.03186989      -1.69173050
H       -3.48041153       7.45009422      -0.94089890
H       -2.33944702       3.33677292       3.43674278
H       -3.64101982       2.74455833       2.46180153
H       -1.99451065       2.55260849       1.90647697
12
Properties=species:S:1:pos:R:3 name=DMC mapped_smiles="[C:1]([O:2][C:3](=[O:4])[O:5][C:6]([H:10])([H:11])[H:12])([H:7])([H:8])[H:9]" pbc="F F F"
C        4.54115677      -1.63418579      -2.19925308
O        3.73717117      -2.66684341      -2.78992462
C        3.35527802      -3.65612030      -1.92087555
O        3.80519485      -3.93838120      -0.79548645
O        2.42705727      -4.28928375      -2.57609177
C        1.65480232      -5.28269577      -1.94817352
H        4.13268661      -1.40391159      -1.26039886
H        5.52974319      -2.06433105      -2.17805481
H        4.42849731      -0.84402084      -2.87775421
H        2.34424019      -6.10124969      -1.77196121
H        1.19697762      -4.82753372      -1.10838699
H        0.87468529      -5.56655884      -2.66979218
12
Properties=species:S:1:pos:R:3 name=DMC mapped_smiles="[C:1]([O:2][C:3](=[O:4])[O:5][C:6]([H:10])([H:11])[H:12])([H:7])([H:8])[H:9]" pbc="F F F"
C       -3.07259369      -2.14596558       0.67872620
O       -2.22817039      -2.94090462       1.55920410
C       -1.14548874      -2.25348473       1.99235153
O       -0.84277153      -1.15346718       1.52079010
O       -0.41595268      -2.97356606       2.80929565
C        0.90553856      -2.63493538       2.95000458
H       -4.02012444      -2.77876472       0.46027756
H       -3.34121895      -1.22795105       1.26444244
H       -2.44756508      -1.90029526      -0.13095856
H        1.37479591      -3.62266731       3.27518463
H        1.32810593      -2.37249947       1.91968918
H        1.07533073      -1.88954735       3.75646973
12
Properties=species:S:1:pos:R:3 name=DMC mapped_smiles="[C:1]([O:2][C:3](=[O:4])[O:5][C:6]([H:10])([H:11])[H:12])([H:7])([H:8])[H:9]" pbc="F F F"
C       -5.64903069      -5.53678322      -0.87189865
O       -5.94991875      -4.19504356      -1.07127762
C       -5.06880188      -3.27518654      -0.60667801
O       -3.86860466      -3.40615654      -0.30765915
O       -5.76873398      -2.06817436      -0.65985489
C       -5.27384186      -0.90042686       0.06800842
H       -4.66820908      -5.80409050      -1.18329620
H       -5.61344528      -5.63974380       0.20363998
H       -6.44178391      -6.22323990      -1.15986252
H       -5.39894485       0.05350113      -0.48675919
H       -5.93899918      -0.82422829       0.93420792
H       -4.21456337      -0.99728203       0.28131866
12
Properties=species:S:1:pos:R:3 name=DMC mapped_smiles="[C:1]([O:2][C:3](=[O:4])[O:5][C:6]([H:10])([H:11])[H:12])([H:7])([H:8])[H:9]" pbc="F F F"
C        5.05870438      -4.65085793       2.06312943
O        3.86915970      -4.02822876       2.36859131
C        3.91810608      -2.82243919       2.77234650
O        4.92667770      -2.25045013       3.10982132
O        2.64989471      -2.30624580       2.76126099
C        2.62219048      -0.89056015       2.95718765
H        5.53112411      -4.89657021       3.03665543
H        4.85843658      -5.53348351       1.44498825
H        5.70128250      -3.93281174       1.53648758
H        3.01708984      -0.50093269       1.99783707
H        1.57525063      -0.56654930       3.14764786
H        3.33962440      -0.56485939       3.69290924
12
Properties=species:S:1:pos:R:3 name=DMC mapped_smiles="[C:1]([O:2][C:3](=[O:4])[O:5][C:6]([H:10])([H:11])[H:12])([H:7])([H:8])[H:9]" pbc="F F F"
C       -0.73236465      -3.06343079       2.29104424
O       -1.24074936      -2.16524887       3.30401802
C       -1.65002060      -0.98525047       2.85933495
O       -1.25756264      -0.36119080       1.86264610
O       -2.51198387      -0.48175430       3.77985573
C       -2.91927338       0.87323952       3.52091789
H       -0.55743027      -4.08932686       2.70770454
H       -1.35614204      -3.13216591       1.39976501
H        0.26359558      -2.63735771       1.90764427
H       -3.09882545       0.91233063       2.45548058
H       -3.79674149       0.95254707       4.15997124
H       -2.14511871       1.60116386       3.68261909
12
Properties=species:S:1:pos:R:3 name=DMC mapped_smiles="[C:1]([O:2][C:3](=[O:4])[O:5][C:6]([H:10])([H:11])[H:12])([H:7])([H:8])[H:9]" pbc="F F F"
C        4.12736702      -0.89899445      -6.84625435
O        2.98812866      -0.10449219      -6.51814461
C        3.00524521       0.68704224      -5.37766457
O        3.83798790       0.71767426      -4.41024971
O        1.89930534       1.51340866      -5.44405556
C        1.71259499       2.51134491      -4.34085274
H        4.42078590      -1.43059158      -5.96805763
H        3.84199333      -1.55277252      -7.69115639
H        4.81435585      -0.13689804      -7.18399239
H        0.62069130       2.50876236      -4.05832100
H        2.25476074       2.28553391      -3.38540840
H        2.01982689       3.43870544      -4.80894661
12
Properties=species:S:1:pos:R:3 name=DMC mapped_smiles="[C:1]([O:2][C:3](=[O:4])[O:5][C:6]([H:10])([H:11])[H:12])([H:7])([H:8])[H:9]" pbc="F F F"
C        6.53871727       3.96981430      -5.64480209
O        5.82062340       4.84481812      -4.67912865
C        6.56994057       5.62892151      -3.81007385
O        7.77355385       5.58662796      -3.68117332
O        5.64888191       6.41515732      -3.17817116
C        6.27570152       7.37182617      -2.15337944
H        7.24169731       4.66046143      -6.13035011
H        6.98673439       3.16637421      -5.11522865
H        5.79543114       3.78672028      -6.42541504
H        5.40220070       7.87854958      -1.75828362
H        6.76850700       6.75208664      -1.36797905
H        6.93737602       8.08716011      -2.67901611
12
Properties=species:S:1:pos:R:3 name=DMC mapped_smiles="[C:1]([O:2][C:3](=[O:4])[O:5][C:6]([H:10])([H:11])[H:12])([H:7])([H:8])[H:9]" pbc="F F F"
C        5.00829697      -3.49944878      -0.17095375
O        4.90118408      -4.92429924       0.25774574
C        4.12874985      -5.06561279       1.32695961
O        3.21809006      -4.32713127       1.67788887
O        4.53334808      -6.13827705       2.04645920
C        3.78540421      -6.44572639       3.14786148
H        5.76948547      -2.98662376       0.47036552
H        5.47791290      -3.43765068      -1.16857910
H        4.05374146      -2.97277260      -0.22558022
H        2.65892410      -6.57304192       2.82110023
H        4.02157974      -7.44378090       3.61622429
H        3.81643677      -5.64632797       3.88309860
12
Properties=species:S:1:pos:R:3 name=DMC mapped_smiles="[C:1]([O:2][C:3](=[O:4])[O:5][C:6]([H:10])([H:11])[H:12])([H:7])([H:8])[H:9]" pbc="F F F"
C       -1.62504005      -1.40922165       5.95282555
O       -1.17605019      -0.15345955       5.46805763
C       -1.67471504       0.27614784       4.29102325
O       -2.62809944      -0.25550652       3.68677521
O       -0.98291206       1.35595703       3.80780792
C       -1.64914513       1.91048622       2.63318825
H       -2.05507851      -1.30090332       7.00014305
H       -2.38258934      -1.84410477       5.25868988
H       -0.79151726      -2.14737892       6.02487755
H       -1.06597710       2.77102280       2.35988808
H       -1.57778358       1.14630508       1.84344482
H       -2.73728371       2.11640167       2.83435631
12
Properties=species:S:1:pos:R:3 name=DMC mapped_smiles="[C:1]([O:2][C:3](=[O:4])[O:5][C:6]([H:10])([H:11])[H:12])([H:7])([H:8])[H:9]" pbc="F F F"
C        0.00000000       0.00000000       0.00000000
O        1.13202858      -0.78181076      -0.25792885
C        2.42692757      -0.24014091      -0.24187279
O        2.67380714       0.96874046      -0.21057701
O        3.30208969      -1.21540070      -0.28510666
C        4.66998482      -0.92488861      -0.26596451
H        0.14393044       1.00394821      -0.42459869
H       -0.84710121      -0.56112289      -0.46532249
H       -0.20507622       0.01099396       1.09204483
H        4.83636284      -0.02679443      -0.93791962
H        4.88092232      -0.65969086       0.75695229
H        5.25467110      -1.80378342      -0.55395508
12
Properties=species:S:1:pos:R:3 name=DMC mapped_smiles="[C:1]([O:2][C:3](=[O:4])[O:5][C:6]([H:10])([H:11])[H:12])([H:7])([H:8])[H:9]" pbc="F F F"
C       -2.29157257      -6.97602844      -4.44016838
O       -1.87760925      -6.98566818      -3.03473091
C       -1.79888725      -5.82900238      -2.27038383
O       -1.90202904      -4.65464401      -2.61466789
O       -1.57757950      -6.25102997      -0.97250938
C       -1.74773979      -5.20019913      -0.05924797
H       -2.68725204      -6.03697586      -4.86323166
H       -1.43890762      -7.30849075      -5.00322533
H       -3.01266289      -7.78719330      -4.66382408
H       -2.78459358      -4.85766602      -0.11389732
H       -1.55019569      -5.63427353       0.88849449
H       -0.93903923      -4.48345566      -0.20171165
12
Properties=species:S:1:pos:R:3 name=DMC mapped_smiles="[C:1]([O:2][C:3](=[O:4])[O:5][C:6]([H:10])([H:11])[H:12])([H:7])([H:8])[H:9]" pbc="F F F"
C       -1.16486740      -3.64123154       2.54188156
O       -2.21663094      -2.60614204       2.64834023
C       -2.02570724      -1.38014984       2.02400398
O       -1.06744766      -0.93605995       1.39610100
O       -3.20299911      -0.73964691       2.22308350
C       -3.39810371       0.56769371       1.73997688
H       -1.37085342      -4.41537285       1.86968040
H       -0.18260002      -3.20979691       2.32000160
H       -1.20653915      -4.13513565       3.46483040
H       -4.00121880       1.14976311       2.53494072
H       -2.47772980       1.09715080       1.75275230
H       -3.93540001       0.51636505       0.79295158
12
Properties=species:S:1:pos:R:3 name=DMC mapped_smiles="[C:1]([O:2][C:3](=[O:4])[O:5][C:6]([H:10])([H:11])[H:12])([H:7])([H:8])[H:9]" pbc="F F F"
C        0.82889557      -4.16726112      -1.29125214
O        1.73424530      -3.68895531      -0.26975250
C        2.81880569      -3.00244331      -0.60957718
O        3.17977142      -2.66125488      -1.75109482
O        3.42569351      -2.74318886       0.61456680
C        4.48617554      -1.93705177       0.77777100
H        0.86198044      -3.54158401      -2.27955246
H        1.24515915      -5.07958794      -1.61655426
H       -0.08168793      -4.32331467      -0.77960587
H        4.05237579      -1.01501274       1.15364838
H        5.12023163      -2.51541901       1.48220444
H        4.98872757      -1.73023796      -0.18466568
12
Properties=species:S:1:pos:R:3 name=DMC mapped_smiles="[C:1]([O:2][C:3](=[O:4])[O:5][C:6]([H:10])([H:11])[H:12])([H:7])([H:8])[H:9]" pbc="F F F"
C        0.97666168       6.37215805      -2.75753021
O       -0.30338860       5.95504379      -3.33738327
C       -0.97539520       4.92586899      -2.79402161
O       -0.88391876       4.45402908      -1.67597198
O       -1.91829109       4.64081192      -3.66600418
C       -2.92711258       3.53114700      -3.46380234
H        0.92688751       7.20869064      -2.10276031
H        1.36950111       5.48108673      -2.24549103
H        1.72262383       6.68954849      -3.45621109
H       -3.66945839       3.45944214      -4.24843979
H       -2.30637741       2.64053726      -3.44900894
H       -3.40670204       3.76712036      -2.53095627
12
Properties=species:S:1:pos:R:3 name=DMC mapped_smiles="[C:1]([O:2][C:3](=[O:4])[O:5][C:6]([H:10])([H:11])[H:12])([H:7])([H:8])[H:9]" pbc="F F F"
C        0.20123100      -0.47883224      -5.36292648
O        1.39870644       0.22105026      -5.42612457
C        1.65672112       0.98174286      -4.29666901
O        0.77512932       1.22733116      -3.43037224
O        2.92947960       1.46645927      -4.32554054
C        3.32762718       2.14197540      -3.12792015
H       -0.15836143      -0.82143974      -6.30920982
H        0.43845940      -1.31557083      -4.72561073
H       -0.60202599       0.21096611      -5.01191330
H        3.44463539       1.34288025      -2.42635536
H        4.19856834       2.71033287      -3.25847435
H        2.49510765       2.86226273      -2.91460991
