9
Properties=species:S:1:pos:R:3 name=FSI mapped_smiles="[N-:1]([S:2](=[O:3])(=[O:4])[F:5])[S:6](=[O:7])(=[O:8])[F:9]" pbc="F F F"
N        0.00000000       0.00000000       0.00000000
S        0.00461388      -0.17175674      -1.55597878
O        1.25633049      -0.84719849      -1.92173386
O       -1.20059776      -0.67178535      -2.19033813
F        0.24697685       1.37374115      -2.28441429
S       -1.02163887       0.76072311       0.93250847
O       -1.15524864       2.18268967       0.61038208
O       -0.76060295       0.32895660       2.27856636
F       -2.58127022       0.07236671       0.43841934
9
Properties=species:S:1:pos:R:3 name=FSI mapped_smiles="[N-:1]([S:2](=[O:3])(=[O:4])[F:5])[S:6](=[O:7])(=[O:8])[F:9]" pbc="F F F"
N        1.92481041       0.34617233       3.92074203
S        2.67274666      -0.27328491       2.68492889
O        3.45007133      -1.47080994       3.00149155
O        1.83064842      -0.33468246       1.46943665
F        3.87609291       0.91456223       2.14745712
S        2.48462105       1.19050217       5.07384872
O        3.73571587       0.76470566       5.69092560
O        1.34044838       1.57474899       5.95517349
F        2.77381706       2.80947495       4.32725906
9
Properties=species:S:1:pos:R:3 name=FSI mapped_smiles="[N-:1]([S:2](=[O:3])(=[O:4])[F:5])[S:6](=[O:7])(=[O:8])[F:9]" pbc="F F F"
N        0.48172379      -3.86247444      -2.11679459
S        0.75524330      -3.16554451      -0.70397568
O        0.16958809      -1.84150887      -0.76665497
O        0.80883026      -3.84212685       0.55352783
F        2.47082329      -2.75821877      -0.95983505
S       -0.21675682      -5.26606941      -2.21252060
O       -0.30998993      -5.70749855      -3.56977844
O       -1.38380051      -5.34824562      -1.33861542
F        1.01783180      -6.34549904      -1.53289032
9
Properties=species:S:1:pos:R:3 name=FSI mapped_smiles="[N-:1]([S:2](=[O:3])(=[O:4])[F:5])[S:6](=[O:7])(=[O:8])[F:9]" pbc="F F F"
N        5.27228546      -3.13377190      -1.34790421
S        4.24272919      -2.03631783      -1.96391869
O        3.34004211      -1.41905022      -0.97681046
O        4.85465240      -1.20789909      -2.95796585
F        3.23651886      -3.01581001      -2.99937248
S        4.97455597      -4.32181358      -0.31145096
O        3.68673325      -4.27579498       0.25506210
O        6.12914658      -4.68746185       0.40101242
F        4.90991592      -5.79107857      -1.40347099
9
Properties=species:S:1:pos:R:3 name=FSI mapped_smiles="[N-:1]([S:2](=[O:3])(=[O:4])[F:5])[S:6](=[O:7])(=[O:8])[F:9]" pbc="F F F"
N        0.00000000       0.00000000       0.00000000
S        1.42673302       0.22235870       0.72175026
O        1.60146713      -0.69399071       1.83107758
O        2.40756416       0.52201462      -0.24971390
F        0.99571419       1.70930672       1.68055153
S       -0.55720520       0.87099457      -1.28905296
O        0.22833443       1.83993340      -1.90509033
O       -1.98921585       1.09934616      -1.21718216
F       -0.46367455      -0.51870537      -2.37987900
9
Properties=species:S:1:pos:R:3 name=FSI mapped_smiles="[N-:1]([S:2](=[O:3])(=[O:4])[F:5])[S:6](=[O:7])(=[O:8])[F:9]" pbc="F F F"
N       -3.14798546       5.15653038       0.75929070
S       -4.36146164       5.95304298       0.15610695
O       -4.08383179       7.30645370       0.46733093
O       -4.79353905       5.57552910      -1.18382645
F       -5.72832870       5.56481361       1.20336342
S       -2.91903687       3.59481049       0.70824432
O       -1.65476418       3.21278763       1.19512749
O       -3.39412308       2.89161491      -0.43360329
F       -4.00296593       3.10091972       1.95151138
9
Properties=species:S:1:pos:R:3 name=FSI mapped_smiles="[N-:1]([S:2](=[O:3])(=[O:4])[F:5])[S:6](=[O:7])(=[O:8])[F:9]" pbc="F F F"
N       -1.70344543      -0.41047287      -3.08522224
S       -1.02231216      -1.32454491      -4.20660400
O       -1.36786270      -0.85453987      -5.53934860
O        0.32649231      -1.73001862      -3.91391563
F       -1.87800980      -2.85071182      -3.89639854
S       -3.14896774       0.21332169      -2.88487625
O       -3.03426743       0.95224380      -1.63516998
O       -4.33271408      -0.58723450      -3.12180138
F       -3.13824463       1.50580978      -4.14826965
9
Properties=species:S:1:pos:R:3 name=FSI mapped_smiles="[N-:1]([S:2](=[O:3])(=[O:4])[F:5])[S:6](=[O:7])(=[O:8])[F:9]" pbc="F F F"
N        6.65010834       0.77624512      -1.87068558
S        7.49089813       1.24191666      -3.18139648
O        8.14519691       0.10761261      -3.88565826
O        6.90354538       2.30024719      -3.98537064
F        8.86293221       2.17112350      -2.64160156
S        7.28858948      -0.08424377      -0.72674179
O        6.55545807       0.08007431       0.43775177
O        8.73858070      -0.10799408      -0.69182205
F        6.77873993      -1.67516327      -1.13940811
9
Properties=species:S:1:pos:R:3 name=FSI mapped_smiles="[N-:1]([S:2](=[O:3])(=[O:4])[F:5])[S:6](=[O:7])(=[O:8])[F:9]" pbc="F F F"
N       -5.61351013      -3.80129623       0.66316986
S       -4.64918137      -4.37932587       1.77093697
O       -4.12203217      -5.72740555       1.55161858
O       -3.70343781      -3.33231354       2.22441483
F       -5.79359055      -4.40884018       3.20835876
S       -6.51194763      -4.73322678      -0.12045860
O       -5.81462097      -5.94580841      -0.52972031
O       -7.28568649      -4.00276947      -1.08435631
F       -7.50239182      -5.10464859       1.25827026
9
Properties=species:S:1:pos:R:3 name=FSI mapped_smiles="[N-:1]([S:2](=[O:3])(=[O:4])[F:5])[S:6](=[O:7])(=[O:8])[F:9]" pbc="F F F"
N        2.08302307      -0.51901054     -11.54466438
S        1.77196312       0.58705139     -12.64428139
O        2.42022133       0.14415359     -13.90657997
O        0.35572052       0.89375114     -12.64888954
F        2.70771027       1.98354530     -12.04589272
S        3.15001869      -0.36139488     -10.38892555
O        4.48847580       0.13398552     -10.74247169
O        3.04359818      -1.45403481      -9.40193367
F        2.38180542       1.01362419      -9.54785347
9
Properties=species:S:1:pos:R:3 name=FSI mapped_smiles="[N-:1]([S:2](=[O:3])(=[O:4])[F:5])[S:6](=[O:7])(=[O:8])[F:9]" pbc="F F F"
N        0.00000000       0.00000000       0.00000000
S       -1.46739388      -0.05039978      -0.58070755
O       -1.79563522       1.22365570      -1.14308739
O       -1.74606514      -1.20138741      -1.43794250
F       -2.58487892      -0.16082954       0.73198318
S        0.52094269       1.18585014       0.95380211
O        1.78704071       0.79264641       1.59791565
O       -0.45654488       2.02254486       1.65930176
F        1.13175774       2.19556236      -0.29402161
9
Properties=species:S:1:pos:R:3 name=FSI mapped_smiles="[N-:1]([S:2](=[O:3])(=[O:4])[F:5])[S:6](=[O:7])(=[O:8])[F:9]" pbc="F F F"
N        7.91340828       0.40361595      -4.01259613
S        7.03224754       1.30677986      -4.96584320
O        7.69902229       1.67066765      -6.21931458
O        5.63692665       0.91273308      -5.03954315
F        6.93247795       2.89431572      -3.99556351
S        7.54232216      -0.01387978      -2.54542923
O        8.46140480       0.62891960      -1.56393433
O        7.29149055      -1.44494820      -2.45552826
F        5.88453102       0.74045181      -2.17343521
9
Properties=species:S:1:pos:R:3 name=FSI mapped_smiles="[N-:1]([S:2](=[O:3])(=[O:4])[F:5])[S:6](=[O:7])(=[O:8])[F:9]" pbc="F F F"
N       -3.07226944      -1.41801834       4.03028488
S       -3.09164429      -1.94464684       2.45904160
O       -4.16741943      -2.89095497       2.19426346
O       -3.04191971      -0.87790680       1.45137787
F       -1.54825592      -2.81737900       2.22010040
S       -1.98277283      -1.82596207       5.09363174
O       -1.77431870      -3.23546600       5.15568924
O       -2.17036819      -1.07227516       6.35232544
F       -0.47866821      -1.06809616       4.47493744
9
Properties=species:S:1:pos:R:3 name=FSI mapped_smiles="[N-:1]([S:2](=[O:3])(=[O:4])[F:5])[S:6](=[O:7])(=[O:8])[F:9]" pbc="F F F"
N        2.56447601       1.80748558      -1.62804031
S        3.89968681       2.01358223      -0.76585770
O        4.77264977       0.87986946      -0.69951248
O        4.28216553       3.36602211      -0.47595596
F        2.99558067       1.53257561       0.71875381
S        2.43112755       2.13403130      -3.16215897
O        1.15190697       1.78785133      -3.69508934
O        3.63670921       1.86312675      -3.92395210
F        2.13020134       3.85028267      -3.27084923
9
Properties=species:S:1:pos:R:3 name=FSI mapped_smiles="[N-:1]([S:2](=[O:3])(=[O:4])[F:5])[S:6](=[O:7])(=[O:8])[F:9]" pbc="F F F"
N        3.67040443      -8.23237801       0.82247353
S        2.29962540      -8.17939186      -0.00013161
O        1.23500443      -8.87250710       0.67921638
O        2.09457970      -6.84369850      -0.52000999
F        2.49469757      -9.22960854      -1.50128937
S        5.05249405      -7.69318581       0.32659340
O        5.85015678      -7.04101753       1.40507317
O        5.21319771      -7.54837990      -1.12394524
F        5.82507133      -9.20887947       0.52428436
9
Properties=species:S:1:pos:R:3 name=FSI mapped_smiles="[N-:1]([S:2](=[O:3])(=[O:4])[F:5])[S:6](=[O:7])(=[O:8])[F:9]" pbc="F F F"
N        0.00000000       0.00000000       0.00000000
S       -0.42481995      -1.40349579      -0.70410919
O       -1.39134979      -1.17782974      -1.77946091
O        0.61301804      -2.37844849      -0.77606964
F       -1.56890106      -2.11341667       0.38457108
S        0.92920685      -0.12688255       1.36720085
O        2.36676025      -0.43339539       1.27945328
O        0.09054947      -0.49764824       2.51030159
F        1.02556992       1.67677498       1.56595993
9
Properties=species:S:1:pos:R:3 name=FSI mapped_smiles="[N-:1]([S:2](=[O:3])(=[O:4])[F:5])[S:6](=[O:7])(=[O:8])[F:9]" pbc="F F F"
N        3.74295235       1.94116783      -0.57463455
S        3.56993675       3.17537880       0.30943298
O        4.49551201       3.01644897       1.41133118
O        3.33347321       4.47373009      -0.27425766
F        2.06896973       2.66669273       1.04605484
S        3.48603439       1.87134552      -2.12508011
O        3.66261864       0.53561592      -2.65353203
O        4.27144051       2.89052963      -2.77696419
F        1.80575371       2.21079636      -2.17050171
9
Properties=species:S:1:pos:R:3 name=FSI mapped_smiles="[N-:1]([S:2](=[O:3])(=[O:4])[F:5])[S:6](=[O:7])(=[O:8])[F:9]" pbc="F F F"
N        2.67962265       0.93210793       2.97477913
S        3.92842484       1.50826263       3.72608757
O        3.72539902       2.82237244       4.35647774
O        4.63089180       0.55438995       4.52675819
F        5.10318375       1.89820671       2.49476814
S        2.79647446      -0.25084877       1.81214333
O        1.47691345      -0.66347122       1.39947510
O        3.87042618      -1.22551346       1.95454216
F        3.37921524       0.62384605       0.41292953
9
Properties=species:S:1:pos:R:3 name=FSI mapped_smiles="[N-:1]([S:2](=[O:3])(=[O:4])[F:5])[S:6](=[O:7])(=[O:8])[F:9]" pbc="F F F"
N        0.15336609      -7.18259430      -3.34428787
S        0.16198349      -6.04058456      -4.36668587
O       -0.87924576      -6.22344208      -5.41135597
O        0.69261169      -4.80303574      -3.94989395
F        1.64616776      -6.76109314      -5.20386505
S       -0.76026917      -7.22789383      -2.11917114
O       -0.31598663      -8.30018997      -1.23489189
O       -2.16056061      -7.03177261      -2.51215744
F       -0.15599823      -5.69868469      -1.41202354
9
Properties=species:S:1:pos:R:3 name=FSI mapped_smiles="[N-:1]([S:2](=[O:3])(=[O:4])[F:5])[S:6](=[O:7])(=[O:8])[F:9]" pbc="F F F"
N        6.95722198      -0.66259003      -2.11731720
S        8.39747810      -0.01211929      -1.89338303
O        9.38210487      -0.96507263      -1.34712219
O        8.76951790       1.00794601      -2.81724930
F        7.98964119       0.93588638      -0.43018723
S        6.03514099      -0.37701797      -3.44791222
O        5.90070724       1.08198166      -3.66057205
O        4.89435196      -1.24520874      -3.67063713
F        7.17847824      -0.82046127      -4.86939240
9
Properties=species:S:1:pos:R:3 name=FSI mapped_smiles="[N-:1]([S:2](=[O:3])(=[O:4])[F:5])[S:6](=[O:7])(=[O:8])[F:9]" pbc="F F F"
N        1.57505417       3.42408562       0.74702072
S        2.01637268       4.92554855       0.81384277
O        3.41807175       5.26575089       1.07338333
O        1.11808395       5.83868408       0.15806198
F        1.40774536       5.04083061       2.49694443
S        2.55758286       2.20603180       1.00918198
O        1.97679520       0.86967468       0.79280853
O        3.56950569       2.42889977       1.90992737
F        3.48618889       2.33377647      -0.55027390
9
Properties=species:S:1:pos:R:3 name=FSI mapped_smiles="[N-:1]([S:2](=[O:3])(=[O:4])[F:5])[S:6](=[O:7])(=[O:8])[F:9]" pbc="F F F"
N        0.00000000       0.00000000       0.00000000
S        0.61770821      -0.92375565       1.13497162
O       -0.02821922      -2.22523117       1.34821320
O        2.10041237      -0.84672165       1.21065140
F        0.18881607       0.02880478       2.64932251
S        0.42425919       1.51811981      -0.22689438
O       -0.35990715       1.98741150      -1.35052109
O        1.85577393       1.77161789      -0.30212784
F       -0.18878937       2.35647583       1.15536499
9
Properties=species:S:1:pos:R:3 name=FSI mapped_smiles="[N-:1]([S:2](=[O:3])(=[O:4])[F:5])[S:6](=[O:7])(=[O:8])[F:9]" pbc="F F F"
N        0.00000000       0.00000000       0.00000000
S        0.97164917       0.13541794      -1.20574379
O        2.27548599      -0.41176987      -1.05188942
O        0.29436493       0.08588409      -2.45486641
F        1.32640839       1.89246750      -1.00870705
S        0.29833221      -0.93561935       1.19767570
O        0.91890717      -2.17506218       0.76899910
O       -0.74131775      -0.99352646       2.18741608
F        1.45588684       0.03021240       2.12800789
9
Properties=species:S:1:pos:R:3 name=FSI mapped_smiles="[N-:1]([S:2](=[O:3])(=[O:4])[F:5])[S:6](=[O:7])(=[O:8])[F:9]" pbc="F F F"
N       -1.26425743      -0.04502869       3.62982559
S       -1.32494545      -1.14519119       4.80505753
O       -0.35648537      -0.90473938       5.86696243
O       -2.55323982      -1.71864700       5.07192230
F       -0.51684189      -2.48549652       3.95687103
S       -2.14889717       1.30512619       3.75129700
O       -3.55605125       0.98668289       3.62381744
O       -1.55437279       2.37730026       2.95635223
F       -1.87127876       1.63066864       5.41525269
9
Properties=species:S:1:pos:R:3 name=FSI mapped_smiles="[N-:1]([S:2](=[O:3])(=[O:4])[F:5])[S:6](=[O:7])(=[O:8])[F:9]" pbc="F F F"
N       -7.80884361       3.24087524       0.28356934
S       -8.66096878       4.32847214       0.96827698
O       -7.88578415       5.30049324       1.74778557
O       -9.76655865       4.64536476       0.21203041
F       -9.37643051       3.32328796       2.24008751
S       -6.32138634       3.23370934      -0.11374283
O       -5.91491508       4.53159714      -0.68413162
O       -6.09430695       2.04165649      -0.91238213
F       -5.50016212       3.01743889       1.45293045
9
Properties=species:S:1:pos:R:3 name=FSI mapped_smiles="[N-:1]([S:2](=[O:3])(=[O:4])[F:5])[S:6](=[O:7])(=[O:8])[F:9]" pbc="F F F"
N        0.00000000       0.00000000       0.00000000
S       -1.41018867      -0.63033676       0.42033768
O       -1.48935890      -2.07525253       0.36334229
O       -2.07699776       0.18274307       1.41350937
F       -2.31868172      -0.24396896      -0.97834396
S        0.98203468      -0.46976471      -1.22246552
O        2.26024628       0.14807510      -1.07669830
O        0.31935883      -0.48419952      -2.52773285
F        1.47142982      -2.15642548      -0.72206116
9
Properties=species:S:1:pos:R:3 name=FSI mapped_smiles="[N-:1]([S:2](=[O:3])(=[O:4])[F:5])[S:6](=[O:7])(=[O:8])[F:9]" pbc="F F F"
N       -1.45592308       0.92152596      -2.63709259
S       -1.08880043       1.35084915      -4.13113022
O       -1.95845222       2.30408287      -4.80307388
O        0.31029701       1.61466980      -4.29615402
F       -1.33847237      -0.18410301      -5.07382584
S       -2.91942406       1.00538635      -2.06736755
O       -3.40260124       2.36785698      -1.89108658
O       -3.16670799       0.00507164      -1.09002686
F       -3.98383904       0.52223396      -3.39385986
9
Properties=species:S:1:pos:R:3 name=FSI mapped_smiles="[N-:1]([S:2](=[O:3])(=[O:4])[F:5])[S:6](=[O:7])(=[O:8])[F:9]" pbc="F F F"
N        0.00000000       0.00000000       0.00000000
S        0.10356903      -1.18987656      -1.08188248
O        1.42090225      -1.29273415      -1.72342300
O       -0.61860657      -2.36723518      -0.70722198
F       -0.83164215      -0.49453354      -2.39049149
S       -1.31274414       0.59175301       0.80331421
O       -0.86533737       1.49380302       1.80194473
O       -2.21765900      -0.51155663       1.07335663
F       -2.23245811       1.46832466      -0.45213699
9
Properties=species:S:1:pos:R:3 name=FSI mapped_smiles="[N-:1]([S:2](=[O:3])(=[O:4])[F:5])[S:6](=[O:7])(=[O:8])[F:9]" pbc="F F F"
N        2.34553909       3.15579033      -0.73603821
S        3.01563263       4.56530190      -0.91775894
O        2.64161301       5.02657890      -2.23891068
O        3.11183357       5.48309898       0.19140244
F        4.65063667       4.00012779      -1.22434235
S        2.31477547       2.30862617       0.54777145
O        1.82289314       0.93169594       0.24632645
O        1.94772530       2.99470329       1.78458786
F        4.01380920       1.95896912       0.75244522
9
Properties=species:S:1:pos:R:3 name=FSI mapped_smiles="[N-:1]([S:2](=[O:3])(=[O:4])[F:5])[S:6](=[O:7])(=[O:8])[F:9]" pbc="F F F"
N        3.69548035       0.63650703       0.43829155
S        4.58113098       1.77989578       1.05941963
O        5.80372620       1.39119720       1.70434761
O        4.53186798       2.92717361       0.17463493
F        3.50038528       2.29160500       2.31105995
S        3.05290985      -0.45771027       1.22879791
O        1.60208511      -0.71075821       1.07245064
O        3.86720848      -0.63225746       2.46148872
F        3.75568962      -1.68702316       0.12991905
9
Properties=species:S:1:pos:R:3 name=FSI mapped_smiles="[N-:1]([S:2](=[O:3])(=[O:4])[F:5])[S:6](=[O:7])(=[O:8])[F:9]" pbc="F F F"
N        0.00000000       0.00000000       0.00000000
S        1.21369934       0.78525162      -0.62738800
O        2.05321884       1.48216629       0.33988571
O        1.73479843       0.13614655      -1.76227570
F        0.39455414       2.13597870      -1.42814064
S       -0.88020897       0.61728668       1.15715408
O       -2.27242470       0.89451218       0.74247360
O       -0.29799080       1.51140213       2.11968994
F       -1.26953697      -0.88665009       2.18938065
9
Properties=species:S:1:pos:R:3 name=FSI mapped_smiles="[N-:1]([S:2](=[O:3])(=[O:4])[F:5])[S:6](=[O:7])(=[O:8])[F:9]" pbc="F F F"
N        0.13658905       1.83588028     -10.85819435
S       -0.22340584       1.06687164      -9.52398109
O       -0.79182816       1.92221451      -8.48311806
O       -0.88932228      -0.15616608      -9.81070137
F        1.41644859       0.63841248      -8.95284462
S        1.41984558       1.66160202     -11.78180885
O        1.31451607       2.45980072     -12.98449135
O        2.09261894       0.35969162     -11.70498848
F        2.45309258       2.68851471     -10.80373573
9
Properties=species:S:1:pos:R:3 name=FSI mapped_smiles="[N-:1]([S:2](=[O:3])(=[O:4])[F:5])[S:6](=[O:7])(=[O:8])[F:9]" pbc="F F F"
N        2.94274521      -4.57974434      -2.87396812
S        1.79674530      -3.50195503      -2.63917732
O        0.58978271      -3.91395950      -2.01602745
O        2.41031647      -2.29702568      -2.16996574
F        1.29615021      -3.05327988      -4.27793503
S        2.90731049      -6.01374054      -2.31570053
O        4.27085876      -6.56667900      -2.08143997
O        1.89732742      -6.85164070      -2.83813858
F        2.44091034      -5.88819695      -0.65160942
9
Properties=species:S:1:pos:R:3 name=FSI mapped_smiles="[N-:1]([S:2](=[O:3])(=[O:4])[F:5])[S:6](=[O:7])(=[O:8])[F:9]" pbc="F F F"
N        0.00000000       0.00000000       0.00000000
S       -0.12851143      -1.14768982       1.17967415
O        0.44747734      -0.56757927       2.35917282
O       -1.43600082      -1.77528381       1.26631927
F        0.94473076      -2.49958611       0.62573433
S       -1.00786781      -0.09093475      -1.30728722
O       -1.95199013       0.98414993      -1.48341179
O       -1.33845329      -1.47012711      -1.70699120
F        0.36563492       0.31515121      -2.42283440
9
Properties=species:S:1:pos:R:3 name=FSI mapped_smiles="[N-:1]([S:2](=[O:3])(=[O:4])[F:5])[S:6](=[O:7])(=[O:8])[F:9]" pbc="F F F"
N       -0.71986580       6.10378075      -1.36568451
S        0.58240128       5.21687889      -1.31427383
O        0.51870537       4.38595581      -0.13795090
O        0.88409996       4.56402779      -2.53802681
F        1.85433197       6.44794273      -1.12009239
S       -1.08668327       7.08663940      -2.55927086
O       -2.39370346       6.85512733      -3.14198112
O        0.02127266       7.33050537      -3.49623299
F       -1.30378914       8.59659004      -1.85951614
9
Properties=species:S:1:pos:R:3 name=FSI mapped_smiles="[N-:1]([S:2](=[O:3])(=[O:4])[F:5])[S:6](=[O:7])(=[O:8])[F:9]" pbc="F F F"
N       -2.43601418       3.42752457      -1.40036583
S       -2.21864128       3.44541168       0.19548988
O       -3.44112587       3.33795929       0.92979050
O       -1.02180862       2.95901108       0.76389503
F       -1.92193031       5.24566269       0.32235336
S       -3.22256660       2.28902817      -2.11897469
O       -2.91831779       2.41215897      -3.53307152
O       -4.49280167       1.78759384      -1.65613365
F       -2.13593483       0.91172791      -1.68362999
9
Properties=species:S:1:pos:R:3 name=FSI mapped_smiles="[N-:1]([S:2](=[O:3])(=[O:4])[F:5])[S:6](=[O:7])(=[O:8])[F:9]" pbc="F F F"
N        4.34204102       0.38300514       0.36648369
S        5.85031128       0.78360176      -0.06627274
O        6.79738808       0.07886314       0.69957161
O        6.08684540       0.87135696      -1.49968529
F        6.19866562       2.42276955       0.58241844
S        3.07619095       1.34910393       0.05900002
O        1.89399529       0.61633110       0.42721558
O        3.06884384       2.05342865      -1.23050880
F        3.26060867       2.61743736       1.33969688
9
Properties=species:S:1:pos:R:3 name=FSI mapped_smiles="[N-:1]([S:2](=[O:3])(=[O:4])[F:5])[S:6](=[O:7])(=[O:8])[F:9]" pbc="F F F"
N        2.06707382       1.57988548      -2.53098679
S        0.85471344       2.49021721      -2.77707672
O        1.14680862       3.89126968      -3.00148392
O       -0.21070480       1.82634163      -3.47074127
F        0.09356689       2.34911919      -1.11028290
S        3.29796219       1.98602295      -1.64992523
O        3.89086151       3.25562859      -1.89788437
O        4.10862732       0.87542534      -1.22013855
F        2.42200470       2.32753563      -0.12343979
9
Properties=species:S:1:pos:R:3 name=FSI mapped_smiles="[N-:1]([S:2](=[O:3])(=[O:4])[F:5])[S:6](=[O:7])(=[O:8])[F:9]" pbc="F F F"
N        4.39764977       4.05806351      -4.45965576
S        3.92873192       2.87051773      -3.55741501
O        3.34308434       1.80415726      -4.29207993
O        4.88440895       2.39903259      -2.60699844
F        2.56035423       3.56421661      -2.71429062
S        5.26017952       5.25509262      -3.86790085
O        5.02840996       5.76787186      -2.51665878
O        5.71989250       6.12208176      -4.88143539
F        6.78685570       4.43414307      -3.64866257
9
Properties=species:S:1:pos:R:3 name=FSI mapped_smiles="[N-:1]([S:2](=[O:3])(=[O:4])[F:5])[S:6](=[O:7])(=[O:8])[F:9]" pbc="F F F"
N       -4.37375832       3.85545731      -5.02371979
S       -5.56872749       3.75679588      -5.97479057
O       -6.80298805       3.78326035      -5.25301552
O       -5.39270973       4.46188545      -7.23392868
F       -5.50531960       2.01526070      -6.42445183
S       -2.80939674       3.74586868      -5.45470238
O       -1.96963692       3.47492790      -4.29051781
O       -2.50312996       4.75905037      -6.48609161
F       -2.52182198       2.17459106      -6.40273666
