9
Properties=species:S:1:pos:R:3 name=FSI mapped_smiles="[N-:1]([S:2](=[O:3])(=[O:4])[F:5])[S:6](=[O:7])(=[O:8])[F:9]" pbc="F F F"
N        0.36453819       6.29624176      -1.37696648
S        1.24345398       6.68775749      -2.59689522
O        2.57452202       7.17217064      -2.20577431
O        1.17806435       5.64222908      -3.59993553
F        0.43054008       7.98549843      -3.48840523
S       -0.26426888       7.33360481      -0.49020004
O       -0.12540817       8.75012398      -0.80024338
O       -0.46218872       7.00628471       0.91746712
F       -1.95884895       7.07595444      -0.89235115
9
Properties=species:S:1:pos:R:3 name=FSI mapped_smiles="[N-:1]([S:2](=[O:3])(=[O:4])[F:5])[S:6](=[O:7])(=[O:8])[F:9]" pbc="F F F"
N        0.27272224      -1.42512512      -4.44191360
S        0.72476387      -1.65345001      -5.90366364
O        1.77120781      -2.58774185      -6.06098938
O       -0.46624756      -1.51916122      -6.73626328
F        1.49420357      -0.05071259      -6.27016830
S        1.31497765      -1.17386627      -3.27676392
O        0.77657127      -0.78229904      -1.96566010
O        2.57653236      -0.77044296      -3.77952194
F        1.54086876      -2.84790421      -2.85839844
9
Properties=species:S:1:pos:R:3 name=FSI mapped_smiles="[N-:1]([S:2](=[O:3])(=[O:4])[F:5])[S:6](=[O:7])(=[O:8])[F:9]" pbc="F F F"
N       -3.82904053       0.99449539      -3.69005966
S       -4.60489655       2.37298775      -3.75971222
O       -5.90630722       2.34714127      -3.13261795
O       -3.75920677       3.55586624      -3.57138824
F       -4.96688461       2.48913956      -5.48633957
S       -2.34757233       0.70197296      -4.17081833
O       -1.94158554       1.30407524      -5.42103958
O       -1.93870163      -0.64043045      -3.79644394
F       -1.49678421       1.54619598      -2.98765945
9
Properties=species:S:1:pos:R:3 name=FSI mapped_smiles="[N-:1]([S:2](=[O:3])(=[O:4])[F:5])[S:6](=[O:7])(=[O:8])[F:9]" pbc="F F F"
N       -3.04461670      -1.92984772      -0.77783203
S       -3.97071075      -0.67868042      -0.55934906
O       -5.17124939      -0.79181671      -1.31782913
O       -3.96381760      -0.13515472       0.73366165
F       -3.09827805       0.41391182      -1.54025459
S       -2.68646622      -2.62796021      -2.17127228
O       -1.58678818      -1.95720482      -2.84002113
O       -3.73696518      -3.21677589      -2.96285248
F       -1.98625946      -4.29621887      -1.63772392
9
Properties=species:S:1:pos:R:3 name=FSI mapped_smiles="[N-:1]([S:2](=[O:3])(=[O:4])[F:5])[S:6](=[O:7])(=[O:8])[F:9]" pbc="F F F"
N        5.77013397       5.54898643      -4.32287025
S        6.23310471       4.72354317      -5.56531715
O        5.51568222       4.93069649      -6.75441933
O        7.66972160       4.54323387      -5.59382820
F        5.93124771       2.99495888      -5.02826881
S        4.19157600       5.86666679      -4.10505104
O        4.06934929       6.75639534      -3.02792549
O        3.18610001       4.81417656      -4.10440254
F        3.77145576       6.87627983      -5.43414497
9
Properties=species:S:1:pos:R:3 name=FSI mapped_smiles="[N-:1]([S:2](=[O:3])(=[O:4])[F:5])[S:6](=[O:7])(=[O:8])[F:9]" pbc="F F F"
N        1.37483597      -4.88690567      -1.08182335
S        2.17698860      -3.97463036      -2.11715126
O        1.74598312      -2.57048607      -2.06698608
O        3.57978058      -4.30669403      -2.13982391
F        1.37171555      -4.34780884      -3.58465004
S        1.77980232      -6.40567398      -0.70585823
O        2.01657486      -7.16368103      -1.88188744
O        1.02495384      -6.99502373       0.38374329
F        3.29246330      -6.07677269       0.18650818
9
Properties=species:S:1:pos:R:3 name=FSI mapped_smiles="[N-:1]([S:2](=[O:3])(=[O:4])[F:5])[S:6](=[O:7])(=[O:8])[F:9]" pbc="F F F"
N       -0.05568695       7.60541725       0.24078560
S        0.95391083       8.66679573       0.71691132
O        0.62366104       9.42553139       1.89478874
O        2.31407928       8.13768196       0.54833603
F        0.98930359       9.84646797      -0.64026833
S       -1.60068130       7.60679054      -0.00007629
O       -1.97389984       8.78965187      -0.71820641
O       -2.51760483       7.00287628       0.97410774
F       -1.58060455       6.39361954      -1.24071121
9
Properties=species:S:1:pos:R:3 name=FSI mapped_smiles="[N-:1]([S:2](=[O:3])(=[O:4])[F:5])[S:6](=[O:7])(=[O:8])[F:9]" pbc="F F F"
N        2.86555862      -2.53171158      -5.65547562
S        2.21984482      -3.86886215      -6.36964417
O        2.26873398      -3.80258560      -7.80508423
O        2.50445938      -5.15173340      -5.71713638
F        0.45764923      -3.51760101      -5.98160553
S        3.94452667      -2.65638733      -4.45877075
O        3.83796692      -3.77968216      -3.61281204
O        4.27061844      -1.37741852      -3.88355637
F        5.31599045      -3.11259079      -5.44318771
9
Properties=species:S:1:pos:R:3 name=FSI mapped_smiles="[N-:1]([S:2](=[O:3])(=[O:4])[F:5])[S:6](=[O:7])(=[O:8])[F:9]" pbc="F F F"
N       -1.24879074       3.45677567       2.01007462
S       -2.62379074       3.46356201       1.23287582
O       -2.93423080       4.62020111       0.35605812
O       -2.82349014       2.13272095       0.73398018
F       -3.86154938       3.57713318       2.48523140
S       -0.05720139       4.49985504       2.14532852
O        0.57381439       4.44019318       3.45086479
O       -0.16635513       5.78934479       1.47605324
F        1.19173050       3.64314651       1.08664513
9
Properties=species:S:1:pos:R:3 name=FSI mapped_smiles="[N-:1]([S:2](=[O:3])(=[O:4])[F:5])[S:6](=[O:7])(=[O:8])[F:9]" pbc="F F F"
N       -1.87446976      -3.14266396      -7.98778725
S       -2.37783051      -1.91185951      -7.16219521
O       -3.26157761      -2.08383179      -6.00054359
O       -1.36614037      -0.92705345      -7.03371620
F       -3.41990089      -1.17431450      -8.43814278
S       -2.61168861      -4.51152611      -8.04155922
O       -2.06949806      -5.30343819      -9.10093117
O       -3.98975563      -4.48190117      -7.69794655
F       -1.81615639      -5.37441063      -6.66889381
9
Properties=species:S:1:pos:R:3 name=FSI mapped_smiles="[N-:1]([S:2](=[O:3])(=[O:4])[F:5])[S:6](=[O:7])(=[O:8])[F:9]" pbc="F F F"
N       -9.68876839       1.14355850      -1.03638649
S       -9.11758614       0.63045120      -2.40469170
O       -8.32353401      -0.57214737      -2.42323303
O      -10.04964638       0.78602409      -3.49162292
F       -7.87867165       1.77427864      -2.72809792
S      -10.48958015       2.55843353      -0.97871208
O      -10.09427071       3.63239288      -1.88205528
O      -10.80013466       2.89114571       0.38540840
F      -12.13010597       2.05858994      -1.53835297
9
Properties=species:S:1:pos:R:3 name=FSI mapped_smiles="[N-:1]([S:2](=[O:3])(=[O:4])[F:5])[S:6](=[O:7])(=[O:8])[F:9]" pbc="F F F"
N        6.24924088      -0.99608803       6.29636765
S        7.08284950       0.24751854       6.90435791
O        6.90711784       0.18700409       8.30748177
O        8.29205894       0.55897331       6.15761185
F        6.12277985       1.65341759       6.43915176
S        6.16488838      -1.46330833       4.79415512
O        5.35381508      -2.70556450       4.57354355
O        7.32576561      -1.17222786       3.98382568
F        5.01312828      -0.28039360       4.15644073
9
Properties=species:S:1:pos:R:3 name=FSI mapped_smiles="[N-:1]([S:2](=[O:3])(=[O:4])[F:5])[S:6](=[O:7])(=[O:8])[F:9]" pbc="F F F"
N       -0.83641434       5.80413628       0.08293152
S       -1.96472549       6.35740662      -0.85125351
O       -2.95929337       5.42232513      -1.34799957
O       -2.31853485       7.72750664      -0.62072754
F       -0.75838852       6.49802971      -2.09540558
S       -0.60575867       4.29169655       0.37429428
O        0.41265488       4.09792519       1.41558456
O       -0.45122147       3.47578239      -0.84393311
F       -2.05794144       3.84013748       1.24304962
9
Properties=species:S:1:pos:R:3 name=FSI mapped_smiles="[N-:1]([S:2](=[O:3])(=[O:4])[F:5])[S:6](=[O:7])(=[O:8])[F:9]" pbc="F F F"
N       -8.05856514       1.13940620      -6.44683075
S       -7.48349190       0.34451866      -5.20636177
O       -6.65749931       1.09083748      -4.33474159
O       -8.40960121      -0.68483543      -4.81797218
F       -6.30974007      -0.54448891      -6.16932106
S       -8.12624931       2.79253578      -6.59163666
O       -8.10461998       3.46108437      -5.35843277
O       -9.04786777       3.14986229      -7.64435577
F       -6.64153862       3.25351524      -7.36309814
9
Properties=species:S:1:pos:R:3 name=FSI mapped_smiles="[N-:1]([S:2](=[O:3])(=[O:4])[F:5])[S:6](=[O:7])(=[O:8])[F:9]" pbc="F F F"
N        4.79268646      -0.82090187       2.07980537
S        3.40103912      -1.06239128       2.72480202
O        2.71941566      -2.14073753       2.07509804
O        3.57526016      -1.02198410       4.13807106
F        2.56900024       0.57314682       2.35932732
S        5.56308365       0.52706718       2.38704491
O        4.76509476       1.63044930       2.78475380
O        6.56485939       0.73098183       1.36996269
F        6.63312721       0.20081520       3.79213142
9
Properties=species:S:1:pos:R:3 name=FSI mapped_smiles="[N-:1]([S:2](=[O:3])(=[O:4])[F:5])[S:6](=[O:7])(=[O:8])[F:9]" pbc="F F F"
N       -6.39229202      -3.95343781      -1.19361687
S       -6.92631721      -5.42590904      -1.60733032
O       -6.68949699      -5.74920654      -2.99726677
O       -6.81884575      -6.36779594      -0.56545448
F       -8.69989967      -5.03957176      -1.61081505
S       -4.95093918      -3.48070526      -0.76991653
O       -4.36742020      -2.42431068      -1.60478210
O       -4.13940620      -4.45850754      -0.13846397
F       -5.38912392      -2.44481850       0.68704224
9
Properties=species:S:1:pos:R:3 name=FSI mapped_smiles="[N-:1]([S:2](=[O:3])(=[O:4])[F:5])[S:6](=[O:7])(=[O:8])[F:9]" pbc="F F F"
N       -7.43417358       0.59420204      -5.04901505
S       -7.49382019      -1.04873466      -5.02421379
O       -8.61867523      -1.68113136      -5.63648987
O       -6.16089249      -1.54695320      -5.38122368
F       -7.75402069      -1.37499428      -3.34426880
S       -6.44331741       1.50998306      -4.18164253
O       -6.29097366       1.09693718      -2.82763100
O       -6.62158966       2.92921829      -4.33652878
F       -4.88265228       1.26504898      -4.99815559
9
Properties=species:S:1:pos:R:3 name=FSI mapped_smiles="[N-:1]([S:2](=[O:3])(=[O:4])[F:5])[S:6](=[O:7])(=[O:8])[F:9]" pbc="F F F"
N       -3.30061722       2.48427773      -3.76768303
S       -2.50697708       1.16008186      -3.32480812
O       -1.69329834       0.74546432      -4.46117592
O       -2.00120354       1.15600777      -1.93467903
F       -3.70373535      -0.12405396      -3.22421837
S       -3.96835709       2.72254753      -5.15417480
O       -4.70028114       3.99660301      -5.11118126
O       -4.60735512       1.55798721      -5.76652145
F       -2.55995560       3.08827209      -6.23010826
9
Properties=species:S:1:pos:R:3 name=FSI mapped_smiles="[N-:1]([S:2](=[O:3])(=[O:4])[F:5])[S:6](=[O:7])(=[O:8])[F:9]" pbc="F F F"
N        3.00462341      -3.45620728       2.93501663
S        1.92357254      -4.37403488       2.24979210
O        2.56903076      -5.39791489       1.40704918
O        0.75583649      -4.79678345       2.99396324
F        1.29575729      -3.17583466       1.02271080
S        2.81866455      -2.57857132       4.19565964
O        3.56528854      -1.36336136       4.04066658
O        2.71631622      -3.24992752       5.48382568
F        1.13486099      -1.95082474       4.00267410
9
Properties=species:S:1:pos:R:3 name=FSI mapped_smiles="[N-:1]([S:2](=[O:3])(=[O:4])[F:5])[S:6](=[O:7])(=[O:8])[F:9]" pbc="F F F"
N        3.63974762      -7.71651459      -3.59062004
S        4.12865829      -6.42353439      -4.40044022
O        3.77075195      -5.22228241      -3.76576614
O        5.48076630      -6.47372055      -4.95617485
F        3.04619598      -6.26292419      -5.74841881
S        3.85117722      -9.19298553      -4.00831223
O        3.39773941      -9.54190063      -5.35202789
O        3.53556442     -10.04577255      -2.87990189
F        5.65377808      -9.28468704      -3.88931084
9
Properties=species:S:1:pos:R:3 name=FSI mapped_smiles="[N-:1]([S:2](=[O:3])(=[O:4])[F:5])[S:6](=[O:7])(=[O:8])[F:9]" pbc="F F F"
N       -4.36939621       3.09305763      -2.60108185
S       -5.60279465       3.87198067      -3.11322403
O       -5.95173645       4.94789314      -2.27877808
O       -5.53443336       3.97849083      -4.55862427
F       -6.80712318       2.62977791      -2.88344955
S       -4.11683083       2.61743736      -1.11878967
O       -5.14739227       2.96211052      -0.16387558
O       -2.74872398       2.67696953      -0.72106171
F       -4.27452660       0.88092995      -1.19753265
9
Properties=species:S:1:pos:R:3 name=FSI mapped_smiles="[N-:1]([S:2](=[O:3])(=[O:4])[F:5])[S:6](=[O:7])(=[O:8])[F:9]" pbc="F F F"
N       -2.89150810       5.23863602      -5.46318436
S       -3.91192436       6.19884109      -6.16259384
O       -5.30365944       5.83270264      -5.96706009
O       -3.69003487       7.64241219      -6.05752182
F       -3.54676247       5.84030533      -7.86478806
S       -1.82588005       5.62429047      -4.35264969
O       -1.24098396       4.46865082      -3.68468857
O       -2.16876221       6.82234573      -3.62313461
F       -0.52583313       6.20507050      -5.31442642
9
Properties=species:S:1:pos:R:3 name=FSI mapped_smiles="[N-:1]([S:2](=[O:3])(=[O:4])[F:5])[S:6](=[O:7])(=[O:8])[F:9]" pbc="F F F"
N       -4.29727173      -5.49647713      -0.24569511
S       -3.77330017      -6.80438232       0.45545578
O       -3.56394196      -7.92068481      -0.51636505
O       -2.63490295      -6.38471413       1.23334694
F       -5.02009964      -7.42348671       1.58980370
S       -5.69312286      -4.83012199      -0.02379799
O       -5.98037338      -3.86832809      -1.05406761
O       -5.99404907      -4.41702843       1.32602501
F       -6.93263245      -6.11130524      -0.34623528
9
Properties=species:S:1:pos:R:3 name=FSI mapped_smiles="[N-:1]([S:2](=[O:3])(=[O:4])[F:5])[S:6](=[O:7])(=[O:8])[F:9]" pbc="F F F"
N       -3.70618248       0.97811127      -4.57205772
S       -4.30441856       0.67564011      -3.10996246
O       -5.39156151      -0.27664948      -3.04746628
O       -3.32262993       0.59749603      -2.10747147
F       -5.27914810       2.18508148      -2.85490799
S       -4.46423340       1.20486450      -5.99763489
O       -3.65051460       1.58738708      -7.10820198
O       -5.73664856       1.87528610      -5.85861588
F       -4.98057938      -0.42102051      -6.60661507
9
Properties=species:S:1:pos:R:3 name=FSI mapped_smiles="[N-:1]([S:2](=[O:3])(=[O:4])[F:5])[S:6](=[O:7])(=[O:8])[F:9]" pbc="F F F"
N        2.08555794       4.95836449       0.01191521
S        1.28864479       5.86760521      -1.04440117
O        0.74275589       7.07197571      -0.46377182
O        1.85362053       5.94000053      -2.36791420
F       -0.27714348       5.08029175      -1.20452499
S        2.55468941       3.50220299      -0.25452995
O        2.52145195       3.05237198      -1.70497704
O        2.32721519       2.59755707       0.82019234
F        4.23333549       3.88747025       0.02141380
9
Properties=species:S:1:pos:R:3 name=FSI mapped_smiles="[N-:1]([S:2](=[O:3])(=[O:4])[F:5])[S:6](=[O:7])(=[O:8])[F:9]" pbc="F F F"
N        1.60098648      -7.21681976       3.69131470
S        2.54313660      -7.97014236       4.75460052
O        3.94336891      -7.68789673       4.66973495
O        1.84879303      -8.01724243       6.05524063
F        2.43169403      -9.63393402       4.43408203
S        1.98563576      -7.22848129       2.13390732
O        3.32902145      -6.68302155       1.90299988
O        0.89872742      -6.65218735       1.35158920
F        2.17867661      -8.93292236       1.59178162
9
Properties=species:S:1:pos:R:3 name=FSI mapped_smiles="[N-:1]([S:2](=[O:3])(=[O:4])[F:5])[S:6](=[O:7])(=[O:8])[F:9]" pbc="F F F"
N        3.29426003       1.77666664       2.47056198
S        2.46274567       0.54795456       2.39518356
O        1.92519569       0.22132874       3.69546127
O        1.86267853       0.11593819       1.17211533
F        3.93985939      -0.53115082       2.27031708
S        3.01540184       3.19228554       1.72059250
O        4.08510399       4.06417656       2.14305878
O        1.60043907       3.47061729       1.56840897
F        3.63922691       2.83511162       0.08360291
9
Properties=species:S:1:pos:R:3 name=FSI mapped_smiles="[N-:1]([S:2](=[O:3])(=[O:4])[F:5])[S:6](=[O:7])(=[O:8])[F:9]" pbc="F F F"
N       -4.69408035      -7.41649818       2.55146408
S       -5.10109520      -8.49642563       1.46481705
O       -6.35920906      -9.19687939       1.70532990
O       -4.70814705      -8.14108658       0.13153076
F       -4.01250648      -9.74675560       1.74322891
S       -3.15487671      -6.85927773       2.70438766
O       -2.11399078      -7.80955505       2.73679733
O       -3.16403770      -5.69744301       3.59084320
F       -2.97784805      -5.91713142       1.22105026
9
Properties=species:S:1:pos:R:3 name=FSI mapped_smiles="[N-:1]([S:2](=[O:3])(=[O:4])[F:5])[S:6](=[O:7])(=[O:8])[F:9]" pbc="F F F"
N       -3.33891296       0.95334053      -0.25671768
S       -4.61202621      -0.07281494      -0.17200470
O       -4.12698174      -1.39574814       0.03004456
O       -5.75224686       0.51758385       0.49100494
F       -5.31616402      -0.13222122      -1.78449249
S       -3.32999992       2.48148918      -0.63211823
O       -4.02281761       2.79375267      -1.89808655
O       -1.99710083       3.00967598      -0.35363770
F       -4.34811783       3.26330376       0.49499512
9
Properties=species:S:1:pos:R:3 name=FSI mapped_smiles="[N-:1]([S:2](=[O:3])(=[O:4])[F:5])[S:6](=[O:7])(=[O:8])[F:9]" pbc="F F F"
N       -4.17989731      -1.05869865      -1.30258942
S       -4.44025230      -2.02958107      -0.07547379
O       -3.54007721      -1.80669212       1.09271622
O       -5.84153748      -2.26327896       0.11437035
F       -3.84758949      -3.61556053      -0.67451668
S       -2.74581718      -0.88576889      -1.96589088
O       -1.54836464      -1.17675972      -1.13188744
O       -2.68257141       0.18166924      -2.91461754
F       -2.92417336      -2.23245049      -3.08006477
9
Properties=species:S:1:pos:R:3 name=FSI mapped_smiles="[N-:1]([S:2](=[O:3])(=[O:4])[F:5])[S:6](=[O:7])(=[O:8])[F:9]" pbc="F F F"
N        8.28487587      -2.40512085      -1.78464890
S        9.75863838      -2.67644882      -1.20759964
O       10.37663841      -1.61056900      -0.49193192
O        9.81133461      -4.03598022      -0.70730591
F       10.65041924      -2.88455963      -2.63615036
S        7.80660439      -1.05932236      -2.49789429
O        7.87708855       0.15274429      -1.68390274
O        6.58588600      -1.29704285      -3.20165634
F        8.91853523      -0.70395279      -3.88107681
9
Properties=species:S:1:pos:R:3 name=FSI mapped_smiles="[N-:1]([S:2](=[O:3])(=[O:4])[F:5])[S:6](=[O:7])(=[O:8])[F:9]" pbc="F F F"
N        3.26622963      -3.40764236      -5.91323280
S        2.75916481      -4.89341354      -5.54116631
O        1.44424820      -5.02066422      -4.89272118
O        3.16436195      -5.89287949      -6.51193047
F        3.75248146      -5.32250214      -4.16897774
S        2.53927422      -2.50901794      -7.01964378
O        2.43816566      -3.13773727      -8.29483604
O        3.08873940      -1.17957306      -6.89090919
F        0.85601807      -2.52413940      -6.53548622
9
Properties=species:S:1:pos:R:3 name=FSI mapped_smiles="[N-:1]([S:2](=[O:3])(=[O:4])[F:5])[S:6](=[O:7])(=[O:8])[F:9]" pbc="F F F"
N        7.12472534       0.32231331       2.07126427
S        5.61714554       0.11704636       2.29632759
O        4.83663177       1.33563995       2.35026169
O        5.06647110      -1.17619514       2.14985275
F        5.95178604      -0.19418335       4.06123161
S        7.86578560      -0.58501625       0.97187614
O        9.19230843      -0.11476898       0.93987274
O        7.24388885      -0.88384056      -0.29805946
F        7.94485664      -2.06291580       2.00382805
9
Properties=species:S:1:pos:R:3 name=FSI mapped_smiles="[N-:1]([S:2](=[O:3])(=[O:4])[F:5])[S:6](=[O:7])(=[O:8])[F:9]" pbc="F F F"
N       -3.39371872      -6.28426361       4.32275963
S       -2.63452148      -4.91876221       4.01424789
O       -3.54629135      -3.92996025       3.37207603
O       -1.51910591      -4.53195190       4.79027748
F       -1.90523529      -5.46656227       2.44981384
S       -2.76646614      -7.55904388       5.11385155
O       -3.53691673      -8.77266884       4.84610748
O       -2.28359413      -7.34116936       6.45339012
F       -1.31449318      -8.05981636       4.14345551
9
Properties=species:S:1:pos:R:3 name=FSI mapped_smiles="[N-:1]([S:2](=[O:3])(=[O:4])[F:5])[S:6](=[O:7])(=[O:8])[F:9]" pbc="F F F"
N        3.52630234      -1.44581985       3.88527107
S        2.66897011      -0.15438271       3.69867897
O        2.39319611       0.57515907       4.92501831
O        3.01465797       0.62615204       2.49598885
F        1.10224724      -0.96024132       3.39097595
S        3.93177795      -2.15082741       5.21628952
O        4.04687691      -1.29483795       6.35692406
O        4.97414589      -3.03551102       4.86835480
F        2.61815453      -3.40435219       5.58860970
9
Properties=species:S:1:pos:R:3 name=FSI mapped_smiles="[N-:1]([S:2](=[O:3])(=[O:4])[F:5])[S:6](=[O:7])(=[O:8])[F:9]" pbc="F F F"
N        2.82520485      -2.51514053      -6.31299210
S        3.30446434      -3.96517563      -5.80143356
O        3.36059380      -4.19167709      -4.40102768
O        2.91882133      -5.00135040      -6.73554993
F        5.00623894      -3.84119797      -6.15312195
S        1.32807732      -2.23670578      -6.54202652
O        0.71403503      -3.16437912      -7.45711136
O        1.20143700      -0.78916931      -6.73732376
F        0.61279106      -2.63522339      -4.86032867
9
Properties=species:S:1:pos:R:3 name=FSI mapped_smiles="[N-:1]([S:2](=[O:3])(=[O:4])[F:5])[S:6](=[O:7])(=[O:8])[F:9]" pbc="F F F"
N       -5.07787132      -2.95743179      -0.89569664
S       -5.78133392      -4.16716003      -1.58407974
O       -4.89500046      -4.81259727      -2.56905746
O       -6.50393867      -5.01480484      -0.69325447
F       -6.91629791      -3.33824348      -2.55150032
S       -4.43955803      -1.71566200      -1.68691063
O       -4.66332054      -1.64187813      -3.07882500
O       -3.28005028      -1.23501015      -1.02845192
F       -5.50025177      -0.53502083      -1.16570663
9
Properties=species:S:1:pos:R:3 name=FSI mapped_smiles="[N-:1]([S:2](=[O:3])(=[O:4])[F:5])[S:6](=[O:7])(=[O:8])[F:9]" pbc="F F F"
N        4.63060379       4.70610046       6.48683167
S        3.19836426       4.84975815       5.87799835
O        2.83415985       3.62998390       5.16223145
O        2.17649841       5.58097458       6.66775513
F        3.53253555       5.96532059       4.59089661
S        5.09955597       5.67245102       7.62281990
O        6.11557007       5.06097603       8.40491676
O        4.02604294       6.31793976       8.34831429
F        6.03788757       6.84499550       6.61602402
9
Properties=species:S:1:pos:R:3 name=FSI mapped_smiles="[N-:1]([S:2](=[O:3])(=[O:4])[F:5])[S:6](=[O:7])(=[O:8])[F:9]" pbc="F F F"
N        3.31025124       7.01272202       0.80634689
S        1.73753548       6.94914246       1.06836700
O        0.99001694       8.14336586       0.82366180
O        1.19473076       5.71407318       0.57813644
F        1.87632179       6.75029373       2.81113815
S        4.26281548       8.10953712       1.39370346
O        5.48323631       8.10421944       0.66569138
O        4.24666405       8.09294319       2.84926605
F        3.50246239       9.77836800       1.06053925
9
Properties=species:S:1:pos:R:3 name=FSI mapped_smiles="[N-:1]([S:2](=[O:3])(=[O:4])[F:5])[S:6](=[O:7])(=[O:8])[F:9]" pbc="F F F"
N        2.35904312       4.14704323      -7.79494667
S        3.20567894       5.44970703      -7.24349976
O        3.32882500       5.62384605      -5.82923508
O        4.32443619       5.83912659      -8.04903793
F        2.15155602       6.70063400      -7.82606506
S        0.99364853       3.57666969      -7.32488632
O        0.95671654       3.56531715      -5.81829262
O        0.42148018       2.54340553      -8.21022415
F       -0.05253792       4.90386581      -7.79190254
