1
Properties=species:S:1:pos:R:3 name=LI mapped_smiles="[Li+:1]" pbc="F F F"
Li       2.46268272       3.41545105      -4.05540848
1
Properties=species:S:1:pos:R:3 name=LI mapped_smiles="[Li+:1]" pbc="F F F"
Li       0.00000000       0.00000000       0.00000000
1
Properties=species:S:1:pos:R:3 name=LI mapped_smiles="[Li+:1]" pbc="F F F"
Li       0.00000000       0.00000000       0.00000000
1
Properties=species:S:1:pos:R:3 name=LI mapped_smiles="[Li+:1]" pbc="F F F"
Li       0.50997543      -2.54795837      -3.31558418
1
Properties=species:S:1:pos:R:3 name=LI mapped_smiles="[Li+:1]" pbc="F F F"
Li       1.98676491       3.61657524      -2.88838005
1
Properties=species:S:1:pos:R:3 name=LI mapped_smiles="[Li+:1]" pbc="F F F"
Li       0.00000000       0.00000000       0.00000000
1
Properties=species:S:1:pos:R:3 name=LI mapped_smiles="[Li+:1]" pbc="F F F"
Li      -3.00076294       3.09888840      -0.35198593
1
Properties=species:S:1:pos:R:3 name=LI mapped_smiles="[Li+:1]" pbc="F F F"
Li       3.31872177       0.33023834      -2.81864548
1
Properties=species:S:1:pos:R:3 name=LI mapped_smiles="[Li+:1]" pbc="F F F"
Li      -2.69556808      -1.50624847       1.85643387
1
Properties=species:S:1:pos:R:3 name=LI mapped_smiles="[Li+:1]" pbc="F F F"
Li      -0.14231491       0.65276909      -7.87038612
1
Properties=species:S:1:pos:R:3 name=LI mapped_smiles="[Li+:1]" pbc="F F F"
Li      -5.46366119       1.31055260       0.38754082
1
Properties=species:S:1:pos:R:3 name=LI mapped_smiles="[Li+:1]" pbc="F F F"
Li       8.57467461       0.10952950       0.44540787
1
Properties=species:S:1:pos:R:3 name=LI mapped_smiles="[Li+:1]" pbc="F F F"
Li      -4.02311707       0.85863304       0.73566055
1
Properties=species:S:1:pos:R:3 name=LI mapped_smiles="[Li+:1]" pbc="F F F"
Li      -2.67004967       1.07881355      -4.06297112
1
Properties=species:S:1:pos:R:3 name=LI mapped_smiles="[Li+:1]" pbc="F F F"
Li       2.77700996      -3.76223946       0.66010857
1
Properties=species:S:1:pos:R:3 name=LI mapped_smiles="[Li+:1]" pbc="F F F"
Li      -3.31351471      -0.30444527      -2.14803123
1
Properties=species:S:1:pos:R:3 name=LI mapped_smiles="[Li+:1]" pbc="F F F"
Li      -1.48794746       1.20539284      -3.31015396
1
Properties=species:S:1:pos:R:3 name=LI mapped_smiles="[Li+:1]" pbc="F F F"
Li       0.00000000       0.00000000       0.00000000
1
Properties=species:S:1:pos:R:3 name=LI mapped_smiles="[Li+:1]" pbc="F F F"
Li       1.45848083      -2.59164810      -2.75898933
1
Properties=species:S:1:pos:R:3 name=LI mapped_smiles="[Li+:1]" pbc="F F F"
Li       2.63663101      -1.84686279      -2.45530319
1
Properties=species:S:1:pos:R:3 name=LI mapped_smiles="[Li+:1]" pbc="F F F"
Li       0.00000000       0.00000000       0.00000000
1
Properties=species:S:1:pos:R:3 name=LI mapped_smiles="[Li+:1]" pbc="F F F"
Li      -0.61644173       2.11356735      -3.85395050
1
Properties=species:S:1:pos:R:3 name=LI mapped_smiles="[Li+:1]" pbc="F F F"
Li      -1.51719666      -4.80655098       2.76365662
1
Properties=species:S:1:pos:R:3 name=LI mapped_smiles="[Li+:1]" pbc="F F F"
Li       0.00000000       0.00000000       0.00000000
1
Properties=species:S:1:pos:R:3 name=LI mapped_smiles="[Li+:1]" pbc="F F F"
Li      -2.40809441       2.47214890      -1.77322006
1
Properties=species:S:1:pos:R:3 name=LI mapped_smiles="[Li+:1]" pbc="F F F"
Li       4.61699295      -3.81985855       0.97920609
1
Properties=species:S:1:pos:R:3 name=LI mapped_smiles="[Li+:1]" pbc="F F F"
Li       0.00000000       0.00000000       0.00000000
1
Properties=species:S:1:pos:R:3 name=LI mapped_smiles="[Li+:1]" pbc="F F F"
Li      -2.00329971      -4.13664818       0.03296280
1
Properties=species:S:1:pos:R:3 name=LI mapped_smiles="[Li+:1]" pbc="F F F"
Li       0.00000000       0.00000000       0.00000000
1
Properties=species:S:1:pos:R:3 name=LI mapped_smiles="[Li+:1]" pbc="F F F"
Li       0.00000000       0.00000000       0.00000000
1
Properties=species:S:1:pos:R:3 name=LI mapped_smiles="[Li+:1]" pbc="F F F"
Li       4.31969833      -0.76346970      -2.91513824
1
Properties=species:S:1:pos:R:3 name=LI mapped_smiles="[Li+:1]" pbc="F F F"
Li       4.17055702       0.61931610      -6.26747322
1
Properties=species:S:1:pos:R:3 name=LI mapped_smiles="[Li+:1]" pbc="F F F"
Li       1.97103119      -2.46344185       1.78626251
1
Properties=species:S:1:pos:R:3 name=LI mapped_smiles="[Li+:1]" pbc="F F F"
Li      -4.11509895      -1.64644623       3.10880852
1
Properties=species:S:1:pos:R:3 name=LI mapped_smiles="[Li+:1]" pbc="F F F"
Li       3.66602325       2.53013992       1.02209663
1
Properties=species:S:1:pos:R:3 name=LI mapped_smiles="[Li+:1]" pbc="F F F"
Li      -1.56741714      -2.58637238      -2.81118011
1
Properties=species:S:1:pos:R:3 name=LI mapped_smiles="[Li+:1]" pbc="F F F"
Li       0.00000000       0.00000000       0.00000000
1
Properties=species:S:1:pos:R:3 name=LI mapped_smiles="[Li+:1]" pbc="F F F"
Li       2.27280426       2.02639008       1.99140930
1
Properties=species:S:1:pos:R:3 name=LI mapped_smiles="[Li+:1]" pbc="F F F"
Li       0.22205162       4.07495117       0.01964569
1
Properties=species:S:1:pos:R:3 name=LI mapped_smiles="[Li+:1]" pbc="F F F"
Li      -0.36423683       2.87934494      -2.94278145
