10
Properties=species:S:1:pos:R:3 name=ACT mapped_smiles="[C:1]([C:2](=[O:3])[C:4]([H:8])([H:9])[H:10])([H:5])([H:6])[H:7]" pbc="F F F"
C       -1.33965877       0.28242169       0.09796778
C        0.02445252       0.13620576      -0.67182477
O        0.20405558       0.51583182      -1.84241799
C        1.26480362      -0.35342984       0.18008217
H       -2.04038768       0.56044362      -0.64073807
H       -1.27084103       1.01864039       0.94584908
H       -1.60077823      -0.72479070       0.45858401
H        1.01877114      -1.29635583       0.65449781
H        2.12259578      -0.38282214      -0.39612651
H        1.27393669       0.25622082       1.15149665
10
Properties=species:S:1:pos:R:3 name=ACT mapped_smiles="[C:1]([C:2](=[O:3])[C:4]([H:8])([H:9])[H:10])([H:5])([H:6])[H:7]" pbc="F F F"
C       -1.31077400       0.20505719       0.09627384
C        0.00478911       0.14953231      -0.60220256
O        0.27214702       0.50145210      -1.82883495
C        1.29852226      -0.34189271       0.15794066
H       -2.04363823       0.68411420      -0.60479360
H       -1.21032105       1.00226471       0.87251816
H       -1.63007191      -0.81628202       0.48283282
H        1.03814428      -1.24992735       0.62879617
H        2.12891298      -0.35394149      -0.37648856
H        1.30544469       0.46749695       1.10914649
