10
Properties=species:S:1:pos:R:3 name=EC mapped_smiles="[C:1]1([H:7])([H:8])[C:2]([H:9])([H:10])[O:3][C:4](=[O:5])[O:6]1" pbc="F F F"
C       -2.30685603       3.98741596       1.53387589
C       -2.98546055       4.16098313       0.08101816
O       -3.11038529       2.80630694      -0.26309428
C       -3.09845867       1.99847548       0.95531626
O       -3.46660527       0.83525628       1.00627199
O       -2.81573606       2.67125881       1.83578797
H       -2.68875812       4.81903159       2.23216314
H       -1.22726505       4.13163488       1.32945123
H       -2.44333552       4.54299469      -0.67268294
H       -3.95962352       4.51081237       0.09977877
10
Properties=species:S:1:pos:R:3 name=EC mapped_smiles="[C:1]1([H:7])([H:8])[C:2]([H:9])([H:10])[O:3][C:4](=[O:5])[O:6]1" pbc="F F F"
C       -0.21029385      -1.74408959       3.23713363
C       -0.21416883      -3.12526312       2.69377618
O        0.98671329      -3.03390367       1.67743861
C        1.77860935      -2.04149296       2.00913866
O        2.84158539      -1.84945205       1.59607103
O        1.16591735      -1.22351317       3.05575817
H       -0.32326921      -1.74548868       4.30481493
H       -0.81662681      -0.97922058       2.63314515
H       -1.11143127      -3.30612814       2.01895722
H        0.00112650      -3.80918535       3.36477648
