$molecule
0 1
  C     8.28191149    6.18304598  -14.91705549
  C     7.85647357    7.20685732  -13.86716402
  Cl    8.94107974    8.66951525  -13.65023744
  H     7.52407992    5.35788119  -14.99390638
  H     8.41566241    6.74929965  -15.88222253
  H     9.28890383    5.81662142  -14.65706575
  H     7.81177294    6.71888888  -12.87690389
  H     6.81540453    7.62166750  -14.11247575
  C     8.49296272    9.58741915  -16.93080437
  C     8.73492897   10.73508990  -17.75323784
  Cl    9.36224830   12.08812106  -16.71001732
  H     9.40034187    9.12257159  -16.48801720
  H     7.73254097    9.85955203  -16.15367424
  H     8.02389991    8.77748263  -17.56351769
  H     7.80495155   10.99373019  -18.29036248
  H     9.51203621   10.50571978  -18.46461785
  C    13.17383730    6.73629796  -18.72976982
  C    12.53895724    8.02214467  -18.55101692
  Cl   12.01412356    8.37799299  -16.98362648
  H    12.83461154    5.97112119  -18.06373513
  H    13.03423464    6.25883329  -19.64908516
  H    14.26174319    6.78942144  -18.70322716
  H    11.71411669    8.19207036  -19.16538536
  H    13.18114626    8.85941541  -18.83373177
$end

    $rem
    JOBTYPE                     FORCE
    METHOD                      B3LYP
    BASIS                       def2-SVPD
    XC_GRID                     000099000590
    NL_GRID                     000050000194
    MAX_SCF_CYCLES              100
    SCF_CONVERGENCE             8
    THRESH                      13
    BASIS_LIN_DEP_THRESH        13
    INCDFT_DENDIFF_THRESH       14
    INCDFT_GRIDDIFF_THRESH      14
    MEM_STATIC                  8000
    MEM_TOTAL                   80000
    SYMMETRY                    FALSE
    SYM_IGNORE                  TRUE
    !LOWDIN_POPULATION           TRUE
    CHELPG                      TRUE
    !ESP_CHARGES                 1
    RESP_CHARGES                1
    !HIRSHFELD                   TRUE
    !CM5                         TRUE
    DFT_D D3_BJ
AUX_BASIS                   RIJK-def2-qzvpp
    occ_ri_k                    TRUE
    ri_k_grad                   TRUE
        $end

$archive
enable_archive = True !Turns on generation of Archive
$end

