10
Properties=species:S:1:pos:R:3 name=EC mapped_smiles="[C:1]1([H:7])([H:8])[C:2]([H:9])([H:10])[O:3][C:4](=[O:5])[O:6]1" pbc="F F F"
C        0.00000000       0.00000000       0.00000000
C        1.27284431      -0.68991470       0.39511871
O        1.85164642       0.14504242       1.40919495
C        0.90316963       0.98020172       1.94981003
O        1.13607407       1.73072815       2.85960388
O       -0.24531937       0.72163391       1.23818970
H       -0.82528496      -0.68453217      -0.16592026
H        0.06687927       0.67232513      -0.86886597
H        1.98974228      -0.88278961      -0.38484192
H        1.02705383      -1.61967087       0.90107727
10
Properties=species:S:1:pos:R:3 name=EC mapped_smiles="[C:1]1([H:7])([H:8])[C:2]([H:9])([H:10])[O:3][C:4](=[O:5])[O:6]1" pbc="F F F"
C        0.00000000       0.00000000       0.00000000
C       -0.85004997      -1.23139954      -0.32283020
O       -1.09034157      -1.18733406      -1.74050522
C       -0.99580956       0.13565826      -2.13585663
O       -1.45923233       0.68874741      -3.12277222
O       -0.37604713       0.83503723      -1.15606308
H        1.01206970      -0.32227325      -0.01214600
H       -0.27354622       0.45380783       0.86841202
H       -1.89072418      -1.20376587       0.20445633
H       -0.36843300      -2.17980385      -0.06083679
10
Properties=species:S:1:pos:R:3 name=EC mapped_smiles="[C:1]1([H:7])([H:8])[C:2]([H:9])([H:10])[O:3][C:4](=[O:5])[O:6]1" pbc="F F F"
C        0.53923798       1.66718292      -4.40489006
C        0.83685875       3.09678268      -4.62391663
O        0.69281197       3.71864319      -3.34000778
C        0.35399246       2.76973343      -2.42653275
O        0.12181091       2.96965790      -1.22981262
O        0.32426453       1.53361893      -2.98709679
H        1.39610672       1.10316467      -4.65847588
H       -0.39463234       1.28878403      -4.91023254
H        0.24940872       3.58532333      -5.33217812
H        1.80188179       3.30358505      -4.96035194
10
Properties=species:S:1:pos:R:3 name=EC mapped_smiles="[C:1]1([H:7])([H:8])[C:2]([H:9])([H:10])[O:3][C:4](=[O:5])[O:6]1" pbc="F F F"
C       -4.97817230      -1.88876915       0.56490326
C       -6.19122314      -1.24539185       1.24077988
O       -5.64962006      -0.46646309       2.32390213
C       -4.33900452      -0.36609268       2.06191254
O       -3.63313293       0.41751862       2.60856247
O       -3.90698242      -1.19247818       1.09260559
H       -4.96116638      -1.64370155      -0.49172592
H       -4.93205261      -2.97449875       0.60638428
H       -6.91680145      -1.88670540       1.61460114
H       -6.82494354      -0.56129646       0.60585785
10
Properties=species:S:1:pos:R:3 name=EC mapped_smiles="[C:1]1([H:7])([H:8])[C:2]([H:9])([H:10])[O:3][C:4](=[O:5])[O:6]1" pbc="F F F"
C        4.08889771      -5.76232910       1.63437653
C        5.46590042      -5.41452026       1.02516937
O        5.13799286      -4.29721069       0.19765472
C        3.79213715      -4.11455536       0.09912491
O        3.18440247      -3.27224731      -0.54341888
O        3.11026764      -5.21363068       0.66751099
H        3.96211624      -5.14435577       2.54330444
H        3.92704964      -6.80454254       1.88282394
H        5.93602562      -6.23931885       0.36857605
H        6.23304749      -5.09771729       1.77552414
10
Properties=species:S:1:pos:R:3 name=EC mapped_smiles="[C:1]1([H:7])([H:8])[C:2]([H:9])([H:10])[O:3][C:4](=[O:5])[O:6]1" pbc="F F F"
C        0.00000000       0.00000000       0.00000000
C        0.49866104       1.55556870      -0.00971603
O        0.70269394       1.94128036      -1.44379044
C        0.51429749       0.67694855      -2.14292145
O        0.56677628       0.56775284      -3.30868912
O        0.08288956      -0.40982056      -1.31920624
H       -1.04518890      -0.10918045       0.35751724
H        0.62214279      -0.63590240       0.63646698
H        1.43376160       1.58089828       0.48020172
H       -0.12149048       2.29621124       0.47967529
10
Properties=species:S:1:pos:R:3 name=EC mapped_smiles="[C:1]1([H:7])([H:8])[C:2]([H:9])([H:10])[O:3][C:4](=[O:5])[O:6]1" pbc="F F F"
C        0.00000000       0.00000000       0.00000000
C        1.09966278      -0.98474121       0.34593201
O        1.74529457      -0.37246704       1.52965164
C        1.15336990       0.79087830       1.92998886
O        1.39735794       1.45727921       2.86220169
O        0.03863907       0.94467926       1.11275482
H       -0.97003365      -0.53929901      -0.13872528
H        0.22376823       0.62397385      -0.89404678
H        1.89319229      -0.96054459      -0.47168350
H        0.89201164      -2.11473846       0.52845383
10
Properties=species:S:1:pos:R:3 name=EC mapped_smiles="[C:1]1([H:7])([H:8])[C:2]([H:9])([H:10])[O:3][C:4](=[O:5])[O:6]1" pbc="F F F"
C        0.00000000       0.00000000       0.00000000
C        1.40003204       0.44364738       0.42825317
O        2.23019791      -0.59445000      -0.12087250
C        1.48476410      -1.47496033      -0.90625954
O        1.82734299      -2.32808304      -1.63446426
O        0.14904404      -1.26517296      -0.68961334
H       -0.57989502       0.71014214      -0.61454010
H       -0.76892471      -0.14414597       0.75074959
H        1.62127686       0.34501648       1.52048874
H        1.82653809       1.40853310       0.06316376
10
Properties=species:S:1:pos:R:3 name=EC mapped_smiles="[C:1]1([H:7])([H:8])[C:2]([H:9])([H:10])[O:3][C:4](=[O:5])[O:6]1" pbc="F F F"
C        1.50984192       2.07025337      -4.15683365
C        2.85819626       2.44426346      -3.62931061
O        2.93902969       1.83985329      -2.36964798
C        1.78296280       1.50351334      -1.90463257
O        1.48667908       1.19355011      -0.78680038
O        0.90324783       1.54885483      -2.86762619
H        1.46824646       1.27825928      -4.90268326
H        0.92489624       2.85981750      -4.57517624
H        3.02947235       3.52573967      -3.45726013
H        3.66601944       2.02762794      -4.23090363
10
Properties=species:S:1:pos:R:3 name=EC mapped_smiles="[C:1]1([H:7])([H:8])[C:2]([H:9])([H:10])[O:3][C:4](=[O:5])[O:6]1" pbc="F F F"
C        0.00000000       0.00000000       0.00000000
C       -0.38598633       0.29684448      -1.45592880
O       -1.68314743      -0.35571289      -1.56167412
C       -2.18601608      -0.38146973      -0.33373642
O       -3.32433701      -0.50495911      -0.00311470
O       -1.18864441      -0.17157936       0.61083603
H        0.58174133       0.79717255       0.46794701
H        0.61571884      -0.89438629      -0.05671883
H        0.29891586      -0.08287621      -2.23017883
H       -0.50616455       1.40993500      -1.52516747
10
Properties=species:S:1:pos:R:3 name=EC mapped_smiles="[C:1]1([H:7])([H:8])[C:2]([H:9])([H:10])[O:3][C:4](=[O:5])[O:6]1" pbc="F F F"
C        3.92546082      -4.18934631       0.31300163
C        4.63227081      -2.86664200       0.49646950
O        3.54858589      -1.89675522       0.30385208
C        2.41134644      -2.49730682       0.27934074
O        1.36698914      -1.89510345       0.11460876
O        2.53256989      -3.79458618       0.44707108
H        4.17531967      -4.94488907       1.05229950
H        4.05432892      -4.58260345      -0.67314529
H        5.50479507      -2.72208023      -0.20456123
H        4.97842789      -2.83403206       1.50196838
10
Properties=species:S:1:pos:R:3 name=EC mapped_smiles="[C:1]1([H:7])([H:8])[C:2]([H:9])([H:10])[O:3][C:4](=[O:5])[O:6]1" pbc="F F F"
C        0.00000000       0.00000000       0.00000000
C        1.07019806       0.34618759       1.01871490
O        2.26370239       0.07615852       0.37069702
C        2.01464844      -0.74881935      -0.63196754
O        2.90276337      -1.15129662      -1.38496017
O        0.71825790      -0.94788170      -0.85508347
H       -0.38274002       0.77950096      -0.66397095
H       -0.81045914      -0.59094810       0.50906372
H        0.99874115      -0.35371399       1.85128212
H        1.00910187       1.37557030       1.37786484
10
Properties=species:S:1:pos:R:3 name=EC mapped_smiles="[C:1]1([H:7])([H:8])[C:2]([H:9])([H:10])[O:3][C:4](=[O:5])[O:6]1" pbc="F F F"
C        0.00000000       0.00000000       0.00000000
C       -0.45352554       0.90543747       1.03796387
O       -0.38495255       0.08317947       2.22798538
C       -0.26837921      -1.19223595       1.96147537
O       -0.22169495      -2.09551620       2.73388290
O       -0.07181549      -1.34095764       0.65738297
H        1.03553772       0.22385788      -0.32759094
H       -0.56447983       0.00013924      -0.87297440
H       -1.45328140       1.31990051       0.85913086
H        0.26785278       1.71076202       1.13982010
10
Properties=species:S:1:pos:R:3 name=EC mapped_smiles="[C:1]1([H:7])([H:8])[C:2]([H:9])([H:10])[O:3][C:4](=[O:5])[O:6]1" pbc="F F F"
C        4.42932701      -2.63576889      -4.26989365
C        3.75322151      -2.90152359      -5.60382843
O        4.65512657      -2.40566635      -6.55125809
C        5.70298958      -1.74160576      -5.97516632
O        6.62207222      -1.23772430      -6.56206894
O        5.61976814      -1.86829758      -4.64199829
H        4.74698830      -3.49504471      -3.76398087
H        3.79524803      -2.11514854      -3.64071655
H        2.83530617      -2.27604294      -5.78347015
H        3.57181358      -3.98764801      -5.74213791
10
Properties=species:S:1:pos:R:3 name=EC mapped_smiles="[C:1]1([H:7])([H:8])[C:2]([H:9])([H:10])[O:3][C:4](=[O:5])[O:6]1" pbc="F F F"
C        1.98017311      -2.81687164      -1.94152451
C        2.31541634      -3.02650070      -3.42035675
O        2.64622688      -1.68872452      -3.77430725
C        3.08526802      -1.01932526      -2.68210602
O        3.71463966      -0.00409698      -2.68265533
O        2.85859871      -1.65231514      -1.57705688
H        2.19546700      -3.63548088      -1.23069763
H        0.91889000      -2.48199463      -1.86065674
H        1.45992851      -3.41028976      -3.98525620
H        3.06657219      -3.75991440      -3.69500351
10
Properties=species:S:1:pos:R:3 name=EC mapped_smiles="[C:1]1([H:7])([H:8])[C:2]([H:9])([H:10])[O:3][C:4](=[O:5])[O:6]1" pbc="F F F"
C       -1.14593697      -3.73755264       7.83200836
C       -2.20192146      -4.73587036       8.28802490
O       -2.09837341      -5.90705490       7.39673615
C       -1.08480644      -5.68037033       6.51021576
O       -0.83636665      -6.34107971       5.54270172
O       -0.32063293      -4.58738136       6.89076996
H       -0.55172348      -3.39001274       8.59030914
H       -1.54131317      -2.87056732       7.26105499
H       -3.23614502      -4.36450958       8.17790222
H       -2.12495422      -5.08355331       9.31789398
10
Properties=species:S:1:pos:R:3 name=EC mapped_smiles="[C:1]1([H:7])([H:8])[C:2]([H:9])([H:10])[O:3][C:4](=[O:5])[O:6]1" pbc="F F F"
C        0.00000000       0.00000000       0.00000000
C       -0.64770126      -1.00563240       0.95418167
O       -1.69217873      -0.26541138       1.63339996
C       -1.75351524       0.90018082       0.98743820
O       -2.62382507       1.71430779       1.03622055
O       -0.65916061       1.21670532       0.29788208
H       -0.09824753      -0.14699364      -1.08760452
H        1.05932236       0.15948677       0.19087601
H       -0.02841949      -1.48031998       1.74247360
H       -1.07749367      -1.80178833       0.28774261
10
Properties=species:S:1:pos:R:3 name=EC mapped_smiles="[C:1]1([H:7])([H:8])[C:2]([H:9])([H:10])[O:3][C:4](=[O:5])[O:6]1" pbc="F F F"
C       -0.92635727      -0.24419403       5.41836548
C       -1.55772972      -0.22058105       4.04131317
O       -0.63383484       0.63331985       3.26301384
C        0.19207764       1.25962448       4.06754684
O        1.00265121       1.99493790       3.59199524
O       -0.07553673       0.91023254       5.37905121
H       -0.32339859      -1.11746597       5.57892227
H       -1.67196465      -0.06143188       6.25293922
H       -2.58235168       0.15114975       4.03271294
H       -1.52306938      -1.20737076       3.58352470
10
Properties=species:S:1:pos:R:3 name=EC mapped_smiles="[C:1]1([H:7])([H:8])[C:2]([H:9])([H:10])[O:3][C:4](=[O:5])[O:6]1" pbc="F F F"
C        0.00000000       0.00000000       0.00000000
C       -1.16914749      -0.70598984      -0.58885956
O       -0.92851257      -2.07837677      -0.26347733
C        0.37382126      -2.26194572      -0.07674789
O        0.96261787      -3.34141159       0.00919724
O        1.02377510      -1.02228928      -0.07635498
H       -0.03712845       0.22846222       1.00093460
H        0.23215485       0.93305206      -0.56034851
H       -1.05049133      -0.65050507      -1.65782166
H       -2.15500259      -0.25131607      -0.20038986
10
Properties=species:S:1:pos:R:3 name=EC mapped_smiles="[C:1]1([H:7])([H:8])[C:2]([H:9])([H:10])[O:3][C:4](=[O:5])[O:6]1" pbc="F F F"
C        9.27617645      -4.54728699       1.26441193
C        9.82055664      -4.26809311       2.71255493
O        9.12574768      -2.97533035       3.06488037
C        8.07977295      -2.76383018       2.21546173
O        7.21246147      -1.92962646       2.28474426
O        8.15409851      -3.69961166       1.17224884
H        9.11030579      -5.62052917       1.16236877
H        9.96325684      -4.24857712       0.38626671
H       10.81414032      -4.09980583       2.90005875
H        9.65063477      -5.08880043       3.45777893
10
Properties=species:S:1:pos:R:3 name=EC mapped_smiles="[C:1]1([H:7])([H:8])[C:2]([H:9])([H:10])[O:3][C:4](=[O:5])[O:6]1" pbc="F F F"
C       -3.91374207      -7.16885948       1.39862442
C       -4.84698486      -7.47980499       0.23158073
O       -6.05860138      -8.03971481       0.79956436
C       -5.93113708      -8.08993149       2.14387703
O       -6.74992371      -8.47777557       2.95848465
O       -4.72628021      -7.45727730       2.49000931
H       -3.53987122      -6.10938263       1.47428131
H       -3.08769226      -7.91395950       1.36539459
H       -4.57458496      -8.04421616      -0.56407547
H       -5.10806274      -6.58948517      -0.23955917
10
Properties=species:S:1:pos:R:3 name=EC mapped_smiles="[C:1]1([H:7])([H:8])[C:2]([H:9])([H:10])[O:3][C:4](=[O:5])[O:6]1" pbc="F F F"
C        5.57586861      -4.28194237      -6.52236938
C        4.56335640      -4.54323196      -7.63807678
O        3.48418999      -3.56209564      -7.48513031
C        3.82923317      -2.71613312      -6.46469116
O        3.15208435      -1.84864044      -5.99543762
O        5.02025795      -3.04534340      -5.95675659
H        6.66351128      -4.10888672      -6.76956177
H        5.59750938      -4.99970055      -5.69772339
H        4.08350182      -5.48708916      -7.54748535
H        5.06141090      -4.34115601      -8.61779022
10
Properties=species:S:1:pos:R:3 name=EC mapped_smiles="[C:1]1([H:7])([H:8])[C:2]([H:9])([H:10])[O:3][C:4](=[O:5])[O:6]1" pbc="F F F"
C        0.00000000       0.00000000       0.00000000
C       -0.68404007       0.95743942       0.89392853
O        0.36484909       1.49689484       1.69828415
C        1.56232834       1.21903992       1.17813683
O        2.62156677       1.72307205       1.47226715
O        1.36333847       0.25706482       0.17264175
H       -0.34089279       0.09572983      -1.02813148
H       -0.10636139      -1.03144455       0.31708145
H       -1.37668228       0.50582886       1.61989594
H       -1.24517822       1.72455215       0.34695053
10
Properties=species:S:1:pos:R:3 name=EC mapped_smiles="[C:1]1([H:7])([H:8])[C:2]([H:9])([H:10])[O:3][C:4](=[O:5])[O:6]1" pbc="F F F"
C        0.00000000       0.00000000       0.00000000
C        1.28626823       0.28449821       0.75002289
O        2.08739090      -0.96118927       0.60444832
C        1.23859596      -1.88647270       0.17557526
O        1.47902107      -3.04094887       0.04141235
O       -0.00816917      -1.44427490      -0.04881096
H        0.04906654       0.31074333      -1.06940269
H       -0.89754868       0.37865448       0.39050865
H        1.19604874       0.37630272       1.84573555
H        1.81304359       1.12928772       0.29202843
10
Properties=species:S:1:pos:R:3 name=EC mapped_smiles="[C:1]1([H:7])([H:8])[C:2]([H:9])([H:10])[O:3][C:4](=[O:5])[O:6]1" pbc="F F F"
C       -8.82185745      -3.00178909      -0.97114372
C       -7.86068726      -2.87929153       0.23976326
O       -6.68445015      -2.32670593      -0.43477058
C       -7.02314568      -1.67789459      -1.59782410
O       -6.19028664      -1.09129333      -2.21287537
O       -8.31241608      -1.91932678      -1.84964180
H       -9.86120987      -2.86918640      -0.75642776
H       -8.72268677      -3.88201523      -1.61423874
H       -7.54824638      -3.71046829       0.80870438
H       -8.10792923      -2.07925415       0.92553902
10
Properties=species:S:1:pos:R:3 name=EC mapped_smiles="[C:1]1([H:7])([H:8])[C:2]([H:9])([H:10])[O:3][C:4](=[O:5])[O:6]1" pbc="F F F"
C       -5.35750198       0.13690186      -9.67248535
C       -3.82929230       0.08343887      -9.88462448
O       -3.44804764       1.18194199      -9.10813141
C       -4.30276108       1.41320419      -8.08872223
O       -4.10023880       2.12670135      -7.11617279
O       -5.50266647       0.71179199      -8.31508636
H       -5.76156616      -0.82346344      -9.62479782
H       -5.90741348       0.69915009     -10.44068909
H       -3.57610703       0.35161591     -10.92554855
H       -3.26240921      -0.80577087      -9.56552887
10
Properties=species:S:1:pos:R:3 name=EC mapped_smiles="[C:1]1([H:7])([H:8])[C:2]([H:9])([H:10])[O:3][C:4](=[O:5])[O:6]1" pbc="F F F"
C        1.46076584       3.39111710       7.58311081
C        0.66387939       3.97683334       6.45830917
O        0.30261040       2.82301712       5.70970535
C        1.07374763       1.69136810       6.08423996
O        0.96188736       0.55101013       5.58350754
O        1.90085030       2.06176758       7.09007263
H        0.74757195       3.21042633       8.41685104
H        2.37358856       3.87909317       7.95192337
H        1.19686127       4.65501022       5.74076843
H       -0.16606903       4.53826523       6.75116348
10
Properties=species:S:1:pos:R:3 name=EC mapped_smiles="[C:1]1([H:7])([H:8])[C:2]([H:9])([H:10])[O:3][C:4](=[O:5])[O:6]1" pbc="F F F"
C        2.46022987      -2.35099792      -3.05064964
C        2.63102341      -3.24688721      -4.28648758
O        1.30234146      -3.51448059      -4.82053757
C        0.44407845      -3.31259155      -3.74329567
O       -0.68796539      -3.68008423      -3.69561005
O        1.12277412      -2.69247437      -2.67884445
H        2.42702103      -1.32530212      -3.27844620
H        3.12713051      -2.56011963      -2.18489075
H        3.12161064      -4.17088318      -3.97373772
H        3.21383286      -2.77828979      -5.05493736
10
Properties=species:S:1:pos:R:3 name=EC mapped_smiles="[C:1]1([H:7])([H:8])[C:2]([H:9])([H:10])[O:3][C:4](=[O:5])[O:6]1" pbc="F F F"
C        0.00000000       0.00000000       0.00000000
C       -0.82228470       0.15668869       1.23133087
O       -1.79115677       1.14875793       0.77368927
C       -1.71805573       1.31739044      -0.57880020
O       -2.41915894       2.02272034      -1.21304703
O       -0.70856476       0.65998840      -1.05366516
H        0.25399017      -1.00675964      -0.29676819
H        0.89447784       0.53444290       0.08398819
H       -0.27770233       0.51897812       2.03886032
H       -1.34017944      -0.69390106       1.59953308
10
Properties=species:S:1:pos:R:3 name=EC mapped_smiles="[C:1]1([H:7])([H:8])[C:2]([H:9])([H:10])[O:3][C:4](=[O:5])[O:6]1" pbc="F F F"
C        0.00000000       0.00000000       0.00000000
C        1.14517212       0.96943283       0.34525871
O        2.20841599       0.36342621      -0.43833733
C        1.75053024      -0.63008499      -1.25409508
O        2.40162659      -1.11101151      -2.16650772
O        0.46596909      -0.90990257      -0.94593430
H       -0.77470779       0.59604836      -0.38434601
H       -0.34540176      -0.43930817       0.94394684
H        1.45721054       1.01719284       1.39468956
H        1.06298447       2.01674271       0.12161446
10
Properties=species:S:1:pos:R:3 name=EC mapped_smiles="[C:1]1([H:7])([H:8])[C:2]([H:9])([H:10])[O:3][C:4](=[O:5])[O:6]1" pbc="F F F"
C        1.85745621       0.66942978      -4.07229233
C        1.23304558       1.26729202      -5.33588028
O       -0.15176010       1.55428314      -4.96929550
C       -0.37747002       1.06962585      -3.69182587
O       -1.39720535       1.30416489      -3.10998917
O        0.73427391       0.42240906      -3.19195557
H        2.60597610       1.25605392      -3.57000732
H        2.37263870      -0.26909637      -4.23343658
H        1.20060539       0.50425339      -6.15383530
H        1.69490814       2.13047028      -5.82991409
10
Properties=species:S:1:pos:R:3 name=EC mapped_smiles="[C:1]1([H:7])([H:8])[C:2]([H:9])([H:10])[O:3][C:4](=[O:5])[O:6]1" pbc="F F F"
C       -3.79298401      -1.16590500       8.01679611
C       -2.88884735      -1.07926941       9.16886902
O       -1.50621414      -1.00579643       8.67305374
C       -1.57929611      -1.38377380       7.41579056
O       -0.63661194      -1.60426331       6.70158005
O       -2.83796310      -1.58724213       6.99647522
H       -4.28544617      -0.23192215       7.84798431
H       -4.59047699      -1.94552040       8.11678314
H       -2.92939377      -1.97027397       9.87770081
H       -2.96892929      -0.23593521       9.83976746
10
Properties=species:S:1:pos:R:3 name=EC mapped_smiles="[C:1]1([H:7])([H:8])[C:2]([H:9])([H:10])[O:3][C:4](=[O:5])[O:6]1" pbc="F F F"
C        1.84616470       3.73995209       5.38100815
C        1.58432007       4.17411041       6.81832123
O        0.18544388       3.86977768       7.14944077
C       -0.41998291       3.38402557       6.06668854
O       -1.60265350       3.18137360       5.98368645
O        0.57308960       3.03048706       5.18255043
H        2.60108948       2.99675751       5.36025810
H        2.04165268       4.45375443       4.60396194
H        1.91657257       5.24679947       6.96608353
H        2.24001312       3.63274765       7.54866028
10
Properties=species:S:1:pos:R:3 name=EC mapped_smiles="[C:1]1([H:7])([H:8])[C:2]([H:9])([H:10])[O:3][C:4](=[O:5])[O:6]1" pbc="F F F"
C        3.13413048      -2.72972488      -8.61548042
C        2.17239571      -3.72326088      -8.03927612
O        2.22160339      -3.46794891      -6.58043289
C        3.15315628      -2.57064056      -6.27781296
O        3.36421967      -2.10972404      -5.19158936
O        3.83663750      -2.21999931      -7.46550751
H        2.74714279      -1.90762138      -9.15159416
H        3.83704758      -3.15376472      -9.32309532
H        2.29639435      -4.73359680      -8.30788231
H        1.16334534      -3.48854637      -8.43737221
10
Properties=species:S:1:pos:R:3 name=EC mapped_smiles="[C:1]1([H:7])([H:8])[C:2]([H:9])([H:10])[O:3][C:4](=[O:5])[O:6]1" pbc="F F F"
C       -1.74686050      -4.95728683       1.35243988
C       -0.52989578      -4.82449150       2.25036621
O        0.03717804      -3.55335808       1.81219482
C       -0.61540985      -3.04842949       0.69139099
O       -0.36429596      -1.99455643       0.14461517
O       -1.59992218      -3.90059662       0.35553741
H       -2.67309189      -4.74744606       1.87676620
H       -1.75468063      -5.90578079       0.82345200
H        0.17152786      -5.60918045       2.04015732
H       -0.63092422      -4.82464218       3.32066345
10
Properties=species:S:1:pos:R:3 name=EC mapped_smiles="[C:1]1([H:7])([H:8])[C:2]([H:9])([H:10])[O:3][C:4](=[O:5])[O:6]1" pbc="F F F"
C       -5.15375900      -6.70862579      -5.09316826
C       -5.85276794      -6.56670380      -3.76437950
O       -4.92900467      -5.92540741      -2.91182327
C       -3.94602203      -5.37669373      -3.72605133
O       -3.00874329      -4.72874451      -3.43743706
O       -4.19091034      -5.68067932      -5.05893898
H       -5.82998657      -6.74766541      -5.93861008
H       -4.68616867      -7.65634155      -5.09245491
H       -6.13951874      -7.58767700      -3.45367050
H       -6.78384399      -5.92277527      -3.76297569
10
Properties=species:S:1:pos:R:3 name=EC mapped_smiles="[C:1]1([H:7])([H:8])[C:2]([H:9])([H:10])[O:3][C:4](=[O:5])[O:6]1" pbc="F F F"
C        0.00000000       0.00000000       0.00000000
C        1.13150597      -0.62274551      -0.81551743
O        0.85123825      -2.03015327      -0.73826218
C       -0.37286377      -2.28698349      -0.28961945
O       -0.81716919      -3.37713242      -0.09940720
O       -0.92801094      -1.07513428       0.11055374
H       -0.54128647       0.86542130      -0.49750900
H        0.34055138       0.31163025       0.99866295
H        2.13624382      -0.29738998      -0.50706291
H        0.98833275      -0.31924438      -1.85607338
10
Properties=species:S:1:pos:R:3 name=EC mapped_smiles="[C:1]1([H:7])([H:8])[C:2]([H:9])([H:10])[O:3][C:4](=[O:5])[O:6]1" pbc="F F F"
C       -6.51098633      -4.17412567      -5.13710594
C       -6.41171646      -2.63492966      -4.98521233
O       -5.32358742      -2.44408798      -4.08179092
C       -4.81842804      -3.57493210      -3.52252197
O       -3.85543060      -3.71176529      -2.81398010
O       -5.75607300      -4.59801483      -3.98223305
H       -5.96964264      -4.48643494      -5.97779846
H       -7.45963287      -4.66236115      -5.06688499
H       -7.33532143      -2.17452621      -4.59753990
H       -6.07703400      -2.21090317      -5.98174286
10
Properties=species:S:1:pos:R:3 name=EC mapped_smiles="[C:1]1([H:7])([H:8])[C:2]([H:9])([H:10])[O:3][C:4](=[O:5])[O:6]1" pbc="F F F"
C       -6.30107689      -4.42447853      -4.95466423
C       -6.48921967      -3.04422951      -5.66314697
O       -5.27322769      -2.34816933      -5.25035095
C       -4.36779213      -3.28724861      -4.84235382
O       -3.21515274      -3.05853081      -4.53795242
O       -4.93684387      -4.47262764      -4.69850540
H       -6.59751129      -5.25410271      -5.56707001
H       -6.82225609      -4.55866051      -3.97817802
H       -7.36535072      -2.60222054      -5.27750397
H       -6.55545425      -3.08658791      -6.73934937
10
Properties=species:S:1:pos:R:3 name=EC mapped_smiles="[C:1]1([H:7])([H:8])[C:2]([H:9])([H:10])[O:3][C:4](=[O:5])[O:6]1" pbc="F F F"
C        0.00000000       0.00000000       0.00000000
C       -1.36513519       0.15073204      -0.66405869
O       -2.13686752       0.70904732       0.34492493
C       -1.43065643       0.81938553       1.53334427
O       -1.98698807       1.16377831       2.57383347
O       -0.11548233       0.46941376       1.31369019
H        0.72837830       0.56253624      -0.54238129
H        0.31559753      -1.04458618       0.02493668
H       -1.86960220      -0.75937080      -1.06521988
H       -1.29143524       0.80092049      -1.49290848
