10
Properties=species:S:1:pos:R:3 name=EC mapped_smiles="[C:1]1([H:7])([H:8])[C:2]([H:9])([H:10])[O:3][C:4](=[O:5])[O:6]1" pbc="F F F"
C        9.01485443       3.27014160       7.88347626
C        8.81512451       2.18887711       8.95518875
O        7.94618225       1.27201843       8.40360260
C        7.65522003       1.72291565       7.16211319
O        6.95234680       1.18129730       6.36797333
O        8.13395691       2.91151428       6.90280914
H       10.02354431       3.29307938       7.43154526
H        8.78900909       4.31000900       8.25066757
H        8.35311890       2.45002365       9.90874863
H        9.78821945       1.75612640       9.25573349
10
Properties=species:S:1:pos:R:3 name=EC mapped_smiles="[C:1]1([H:7])([H:8])[C:2]([H:9])([H:10])[O:3][C:4](=[O:5])[O:6]1" pbc="F F F"
C       -0.21409988       4.44506836      -2.17625427
C       -1.25019646       5.04190445      -1.16303253
O       -2.43606949       4.60129547      -1.69717789
C       -2.24984741       4.38340759      -3.04208374
O       -3.18223000       4.15817642      -3.79738998
O       -0.91656303       4.41033936      -3.40060043
H        0.05430222       3.40460205      -1.94424820
H        0.61803055       5.04692459      -2.28976440
H       -1.24302483       6.15834427      -1.00834656
H       -1.25230980       4.70013428      -0.12662125
10
Properties=species:S:1:pos:R:3 name=EC mapped_smiles="[C:1]1([H:7])([H:8])[C:2]([H:9])([H:10])[O:3][C:4](=[O:5])[O:6]1" pbc="F F F"
C        3.91404533      -0.97066498      -0.24254990
C        4.57840347       0.05602264       0.57822800
O        4.38053513       1.27043152      -0.11715698
C        3.46436691       1.13475418      -1.10323715
O        3.14797020       1.96621704      -1.83536148
O        3.22194672      -0.18828201      -1.32899475
H        3.14292145      -1.43272018       0.38087463
H        4.58813667      -1.77508545      -0.67051315
H        5.60222244      -0.09325027       0.88295746
H        4.02366447       0.13959503       1.49714661
10
Properties=species:S:1:pos:R:3 name=EC mapped_smiles="[C:1]1([H:7])([H:8])[C:2]([H:9])([H:10])[O:3][C:4](=[O:5])[O:6]1" pbc="F F F"
C       -0.59283829      -0.32550812      -7.47682190
C       -0.01302338      -1.51681137      -6.86697388
O       -0.73816490      -1.81028366      -5.73289490
C       -1.37877083      -0.75382614      -5.35119629
O       -1.93626404      -0.59332657      -4.27087402
O       -1.33766365       0.16288757      -6.40748596
H       -1.17512703      -0.58063889      -8.30044174
H        0.24765968       0.38471222      -7.79940033
H        1.00492477      -1.35348129      -6.60774231
H       -0.05537605      -2.34201813      -7.57400513
10
Properties=species:S:1:pos:R:3 name=EC mapped_smiles="[C:1]1([H:7])([H:8])[C:2]([H:9])([H:10])[O:3][C:4](=[O:5])[O:6]1" pbc="F F F"
C        0.18795395      -5.36753845      -0.19003677
C       -0.32175446      -4.21223450      -0.86150360
O       -1.39647675      -3.81436920      -0.00313950
C       -1.75423050      -4.85098267       0.71999359
O       -2.79481506      -4.85913086       1.38835144
O       -0.89579391      -5.81105042       0.54909897
H        0.96746826      -5.05136108       0.48816299
H        0.63915253      -6.20523071      -0.76169586
H       -0.75061417      -4.29656219      -1.79976654
H        0.48508835      -3.48843384      -0.97462082
10
Properties=species:S:1:pos:R:3 name=EC mapped_smiles="[C:1]1([H:7])([H:8])[C:2]([H:9])([H:10])[O:3][C:4](=[O:5])[O:6]1" pbc="F F F"
C        4.68722725      -0.39796448       1.65797424
C        5.89697266       0.06895447       0.80855179
O        5.49517441       0.53545761      -0.44631195
C        4.12356567       0.53749084      -0.50130844
O        3.38145256       0.83866119      -1.40089035
O        3.68930435       0.22758484       0.77854156
H        4.70650864      -0.16826630       2.71909332
H        4.50196075      -1.47332001       1.63458252
H        6.55519867      -0.73607635       0.58838272
H        6.58082962       0.81375504       1.35770798
10
Properties=species:S:1:pos:R:3 name=EC mapped_smiles="[C:1]1([H:7])([H:8])[C:2]([H:9])([H:10])[O:3][C:4](=[O:5])[O:6]1" pbc="F F F"
C        4.46005440      -2.90417099      -4.47219086
C        5.50951195      -2.00782013      -3.80510712
O        5.01001358      -0.65618515      -3.92525864
C        4.10268593      -0.62471771      -4.89969254
O        3.62829208       0.38897705      -5.21651840
O        3.87637138      -1.90396881      -5.34053421
H        3.64305878      -3.19612122      -3.76939011
H        4.80827332      -3.88298798      -5.04658127
H        6.56677055      -2.12071991      -4.21105194
H        5.76297569      -2.27081680      -2.72867584
10
Properties=species:S:1:pos:R:3 name=EC mapped_smiles="[C:1]1([H:7])([H:8])[C:2]([H:9])([H:10])[O:3][C:4](=[O:5])[O:6]1" pbc="F F F"
C        1.63931656      -4.91861343       2.75663757
C        1.42539978      -4.43240166       1.33427620
O        2.20373917      -3.25534248       1.27465057
C        3.20540619      -3.30174828       2.15617371
O        4.14344406      -2.61040306       2.20714951
O        2.94424820      -4.33933067       3.05536079
H        1.68666840      -6.00992393       2.88930893
H        1.02615356      -4.52617073       3.62985229
H        0.35926437      -4.16445351       1.17201424
H        1.68100739      -5.17780876       0.58436966
10
Properties=species:S:1:pos:R:3 name=EC mapped_smiles="[C:1]1([H:7])([H:8])[C:2]([H:9])([H:10])[O:3][C:4](=[O:5])[O:6]1" pbc="F F F"
C       -4.08752823      -1.36121941      -2.45679474
C       -3.55721664      -2.81260300      -2.47297287
O       -2.16458893      -2.64452171      -2.50489426
C       -1.86785126      -1.36651039      -1.92733765
O       -0.78949356      -1.06021500      -1.51001358
O       -2.91568756      -0.60136223      -1.88724136
H       -5.00098038      -1.16787338      -1.84145737
H       -4.21672821      -0.85166359      -3.41292572
H       -3.91349792      -3.47951126      -3.23425293
H       -3.84980392      -3.23793793      -1.52843475
10
Properties=species:S:1:pos:R:3 name=EC mapped_smiles="[C:1]1([H:7])([H:8])[C:2]([H:9])([H:10])[O:3][C:4](=[O:5])[O:6]1" pbc="F F F"
C       -9.13505554      -3.19316101      -3.33640862
C       -8.62547684      -1.74588013      -3.13568878
O       -8.85052109      -1.52743530      -1.78965187
C       -9.75196838      -2.44840240      -1.29892921
O      -10.21213913      -2.53302002      -0.19477272
O      -10.00117111      -3.31443787      -2.21965981
H       -8.25923157      -3.84570312      -3.30091095
H       -9.53272629      -3.41761780      -4.32743645
H       -9.26354980      -1.02392578      -3.69578552
H       -7.55804062      -1.56143951      -3.40142250
10
Properties=species:S:1:pos:R:3 name=EC mapped_smiles="[C:1]1([H:7])([H:8])[C:2]([H:9])([H:10])[O:3][C:4](=[O:5])[O:6]1" pbc="F F F"
C       -2.71161461       3.32662964      -2.18968582
C       -4.01486015       2.48839569      -2.00291443
O       -3.77006340       1.76287460      -0.81363106
C       -2.39741325       1.87845230      -0.36617661
O       -1.89188576       1.14353180       0.47863007
O       -1.78695869       2.72963142      -1.31344604
H       -2.77816200       4.28333664      -1.67305946
H       -2.27907753       3.42449379      -3.19306374
H       -4.01943398       1.79038429      -2.83454132
H       -4.95910072       3.10225677      -1.97707748
10
Properties=species:S:1:pos:R:3 name=EC mapped_smiles="[C:1]1([H:7])([H:8])[C:2]([H:9])([H:10])[O:3][C:4](=[O:5])[O:6]1" pbc="F F F"
C        0.86144257      -3.79769707       3.62102509
C        0.33078384      -4.96298218       2.83420181
O        1.13560867      -4.91184998       1.64264107
C        1.34603119      -3.67037964       1.36493111
O        1.83024597      -3.26522446       0.33424950
O        1.07029724      -2.92448807       2.43445015
H        1.82003021      -3.98725319       4.13977814
H        0.09188461      -3.34870911       4.27630234
H       -0.77538681      -4.96291924       2.56162262
H        0.63455963      -5.98252678       3.27679062
10
Properties=species:S:1:pos:R:3 name=EC mapped_smiles="[C:1]1([H:7])([H:8])[C:2]([H:9])([H:10])[O:3][C:4](=[O:5])[O:6]1" pbc="F F F"
C       -2.56203842       3.63472557      -2.78725433
C       -4.06976700       3.36047173      -3.11722374
O       -4.00448036       2.40732384      -4.21201706
C       -2.83265305       2.55111885      -4.83129311
O       -2.50477219       2.06805420      -5.88702393
O       -1.95051193       3.28809738      -4.10400391
H       -2.20153427       2.93036079      -2.02755737
H       -2.31082153       4.67952347      -2.57765579
H       -4.72775459       4.15490150      -3.45410728
H       -4.55159378       2.85667419      -2.30706406
10
Properties=species:S:1:pos:R:3 name=EC mapped_smiles="[C:1]1([H:7])([H:8])[C:2]([H:9])([H:10])[O:3][C:4](=[O:5])[O:6]1" pbc="F F F"
C       -1.69592285      -5.09661674      -7.79599762
C       -2.53286743      -6.02366257      -6.91420364
O       -2.16232300      -5.63416672      -5.55495453
C       -0.97374344      -5.00710869      -5.48339844
O       -0.39478683      -4.62385941      -4.51905060
O       -0.68111610      -4.71590996      -6.80576706
H       -2.18665123      -4.19209671      -8.12538528
H       -1.30785179      -5.58794594      -8.70871353
H       -2.46797752      -7.10019684      -7.10128021
H       -3.65955544      -5.86348915      -6.93153381
10
Properties=species:S:1:pos:R:3 name=EC mapped_smiles="[C:1]1([H:7])([H:8])[C:2]([H:9])([H:10])[O:3][C:4](=[O:5])[O:6]1" pbc="F F F"
C       -4.88299942      -3.82789993      -5.18029022
C       -5.49130440      -5.11832428      -4.78928757
O       -5.17219543      -5.42631721      -3.42108536
C       -4.26021767      -4.48459053      -3.04264832
O       -3.58613777      -4.47575760      -2.07602692
O       -4.01482010      -3.58702850      -4.07360077
H       -5.59080505      -2.98508835      -5.34042358
H       -4.28408432      -3.92100525      -6.08359909
H       -5.10720634      -5.95828056      -5.42347336
H       -6.54683304      -5.15120697      -5.02586746
10
Properties=species:S:1:pos:R:3 name=EC mapped_smiles="[C:1]1([H:7])([H:8])[C:2]([H:9])([H:10])[O:3][C:4](=[O:5])[O:6]1" pbc="F F F"
C       -4.56369400      -4.92407799       5.68007278
C       -4.81898499      -5.63907242       4.41278458
O       -4.81772041      -7.04666519       4.80607605
C       -4.84987259      -7.18665695       6.13399315
O       -5.05747604      -8.17749691       6.70800209
O       -4.67631721      -5.96903992       6.68134117
H       -5.35454178      -4.23352432       5.90609360
H       -3.62842369      -4.40083313       5.72674561
H       -3.93572617      -5.53020477       3.69740486
H       -5.71385765      -5.48008537       3.83382034
10
Properties=species:S:1:pos:R:3 name=EC mapped_smiles="[C:1]1([H:7])([H:8])[C:2]([H:9])([H:10])[O:3][C:4](=[O:5])[O:6]1" pbc="F F F"
C        0.47329140      -3.46885109       5.44243050
C        1.73539352      -3.63460732       6.22723007
O        2.71246910      -3.15115929       5.26663208
C        2.18782043      -2.35678482       4.39548492
O        2.76651382      -1.64371872       3.59969330
O        0.85595894      -2.50357628       4.47963905
H       -0.34678078      -3.11529541       5.99955940
H        0.07401085      -4.35455704       4.91364288
H        1.92498970      -4.67086792       6.63829422
H        1.76982117      -2.93988228       7.03367233
10
Properties=species:S:1:pos:R:3 name=EC mapped_smiles="[C:1]1([H:7])([H:8])[C:2]([H:9])([H:10])[O:3][C:4](=[O:5])[O:6]1" pbc="F F F"
C       -4.72861481       2.17417908       2.05644226
C       -4.57220840       2.74834061       3.53315926
O       -3.11152840       3.11856079       3.51335907
C       -2.62054825       3.05690384       2.22906876
O       -1.47693253       3.24337006       1.98379898
O       -3.56924438       2.66117477       1.38551903
H       -5.70256805       2.39300919       1.57069397
H       -4.78435326       1.07962036       2.05859756
H       -4.82591057       2.06217575       4.33902550
H       -5.11835670       3.70409393       3.65428925
10
Properties=species:S:1:pos:R:3 name=EC mapped_smiles="[C:1]1([H:7])([H:8])[C:2]([H:9])([H:10])[O:3][C:4](=[O:5])[O:6]1" pbc="F F F"
C        0.30458260      -6.44611740       2.27705002
C        0.08129311      -6.64650726       0.79071808
O       -0.89288521      -5.52755928       0.48461151
C       -1.17156410      -4.85374069       1.59606171
O       -2.03618431      -3.95252800       1.71322250
O       -0.43806648      -5.26609421       2.70869446
H        1.40884590      -6.25461197       2.43049240
H        0.11985970      -7.32868958       2.93443680
H       -0.41873741      -7.58220673       0.57331085
H        0.92235756      -6.62146187       0.08180618
10
Properties=species:S:1:pos:R:3 name=EC mapped_smiles="[C:1]1([H:7])([H:8])[C:2]([H:9])([H:10])[O:3][C:4](=[O:5])[O:6]1" pbc="F F F"
C        4.60877037       4.63818169       3.93243408
C        3.92914200       5.52332878       2.98734665
O        3.20276070       4.66042900       2.13291931
C        3.69057465       3.34291649       2.26395416
O        3.42349434       2.31861305       1.62368393
O        4.53640366       3.34462929       3.27731705
H        4.13043404       4.58689690       4.92152786
H        5.67366600       4.85347557       4.11420441
H        4.56681252       6.10936546       2.30923080
H        3.23855782       6.22330666       3.47941208
10
Properties=species:S:1:pos:R:3 name=EC mapped_smiles="[C:1]1([H:7])([H:8])[C:2]([H:9])([H:10])[O:3][C:4](=[O:5])[O:6]1" pbc="F F F"
C       -7.36557007      -3.36098480       4.85833740
C       -6.51565552      -4.59628677       5.09668732
O       -5.56771088      -4.52749252       3.98332977
C       -6.07818604      -3.72126007       3.02430725
O       -5.58290863      -3.62044144       1.90880585
O       -7.07129669      -2.99916458       3.50096512
H       -7.10806274      -2.43606186       5.49993134
H       -8.46404266      -3.49900055       5.01038361
H       -7.17170715      -5.45128250       5.05194092
H       -5.95803070      -4.66253281       6.02152634
10
Properties=species:S:1:pos:R:3 name=EC mapped_smiles="[C:1]1([H:7])([H:8])[C:2]([H:9])([H:10])[O:3][C:4](=[O:5])[O:6]1" pbc="F F F"
C       -1.26961708      -3.24225235      -7.50220490
C       -2.12148094      -1.94975662      -7.56311035
O       -1.50020981      -1.12856293      -6.63252258
C       -0.43453979      -1.68641281      -6.06847382
O        0.37543488      -1.15832138      -5.35043335
O       -0.50678062      -3.02579308      -6.32525635
H       -0.45500183      -3.23214340      -8.20007706
H       -1.93126678      -4.16056061      -7.48406982
H       -3.14620590      -2.10435104      -7.29913330
H       -2.04117775      -1.48985291      -8.56973267
10
Properties=species:S:1:pos:R:3 name=EC mapped_smiles="[C:1]1([H:7])([H:8])[C:2]([H:9])([H:10])[O:3][C:4](=[O:5])[O:6]1" pbc="F F F"
C        3.77947998      -1.15510559       2.79667854
C        4.28482819      -1.73027039       1.41939354
O        3.11930847      -2.29262924       0.81921577
C        2.12276840      -2.30635452       1.71253777
O        1.00820923      -2.63409805       1.51866722
O        2.49929810      -1.75111389       2.87577248
H        3.63854980      -0.04834366       2.94604301
H        4.34601974      -1.57917786       3.59540749
H        5.09008408      -2.44686508       1.42344093
H        4.66918373      -0.90039444       0.87164116
10
Properties=species:S:1:pos:R:3 name=EC mapped_smiles="[C:1]1([H:7])([H:8])[C:2]([H:9])([H:10])[O:3][C:4](=[O:5])[O:6]1" pbc="F F F"
C        5.64447975       5.60967636      -0.71169662
C        4.26855278       5.93226051      -1.19948578
O        3.54741478       4.67439079      -1.33987045
C        4.40464020       3.68915176      -1.17148018
O        4.09307289       2.51032829      -1.30584717
O        5.62534714       4.10928345      -0.72814369
H        5.76547623       6.01049995       0.29556084
H        6.42255783       5.95749664      -1.34906006
H        4.24530029       6.37026787      -2.16815948
H        3.67577553       6.61472511      -0.58278656
10
Properties=species:S:1:pos:R:3 name=EC mapped_smiles="[C:1]1([H:7])([H:8])[C:2]([H:9])([H:10])[O:3][C:4](=[O:5])[O:6]1" pbc="F F F"
C       -4.85622597       2.88214493      -1.68642426
C       -5.13601875       3.91037750      -2.82278824
O       -3.97804451       3.86670303      -3.58690643
C       -3.00382423       3.34674454      -2.89390945
O       -1.85892677       3.20540619      -3.18549728
O       -3.44360542       2.79724884      -1.66577148
H       -5.24217033       1.86616135      -1.90058899
H       -5.25653648       3.13345718      -0.67189217
H       -5.24240303       4.94757080      -2.49501801
H       -6.01574516       3.79383850      -3.40105057
10
Properties=species:S:1:pos:R:3 name=EC mapped_smiles="[C:1]1([H:7])([H:8])[C:2]([H:9])([H:10])[O:3][C:4](=[O:5])[O:6]1" pbc="F F F"
C       -2.30693817      -4.33863831      -2.52215195
C       -3.32851791      -5.44693756      -2.86389542
O       -4.39279938      -4.79571152      -3.52882004
C       -4.12250519      -3.47632980      -3.58740997
O       -4.86295700      -2.73278427      -4.18898010
O       -2.93387222      -3.18254471      -3.09447479
H       -1.37751007      -4.39383698      -3.14848328
H       -2.07706070      -4.24708939      -1.48854065
H       -3.76525497      -5.90991592      -2.03561783
H       -2.91005707      -6.28429031      -3.39640808
10
Properties=species:S:1:pos:R:3 name=EC mapped_smiles="[C:1]1([H:7])([H:8])[C:2]([H:9])([H:10])[O:3][C:4](=[O:5])[O:6]1" pbc="F F F"
C        4.78584671       1.72173691       3.06889343
C        3.24242592       1.87461090       3.31175613
O        3.17406654       3.01730347       4.17708206
C        4.37314224       3.51976776       4.40195084
O        4.69324493       4.51697540       4.97824478
O        5.31061554       2.77952576       3.78660965
H        5.02365303       1.74254608       1.99967957
H        5.29933548       0.79938126       3.41941071
H        2.62737274       1.08202744       3.79665756
H        2.76254654       2.09546661       2.41557693
10
Properties=species:S:1:pos:R:3 name=EC mapped_smiles="[C:1]1([H:7])([H:8])[C:2]([H:9])([H:10])[O:3][C:4](=[O:5])[O:6]1" pbc="F F F"
C       -1.27030182       0.76496506      -5.44861412
C       -0.44457245      -0.17956161      -4.57114220
O        0.38724518      -0.95246124      -5.46180725
C       -0.09745407      -0.74615097      -6.69747543
O        0.22795868      -1.31388474      -7.67239761
O       -1.07565689       0.25241089      -6.76692390
H       -0.95551300       1.82169724      -5.40099907
H       -2.35573196       0.76351547      -5.28025246
H       -1.11123657      -0.89336777      -4.02511024
H        0.22417068       0.30855560      -3.81358528
10
Properties=species:S:1:pos:R:3 name=EC mapped_smiles="[C:1]1([H:7])([H:8])[C:2]([H:9])([H:10])[O:3][C:4](=[O:5])[O:6]1" pbc="F F F"
C       -4.18560028       1.03733826      -7.88002014
C       -3.30140686       1.97938538      -8.77604675
O       -3.23883438       1.21225357     -10.00270081
C       -3.52247620      -0.10645294      -9.78034973
O       -3.43009949      -0.98434067     -10.61102676
O       -3.85987854      -0.24325943      -8.46126175
H       -5.22571182       1.21413422      -7.91084671
H       -3.99585724       1.09086609      -6.83056259
H       -2.23133850       1.92761612      -8.45346832
H       -3.58671570       2.94850540      -8.82129288
10
Properties=species:S:1:pos:R:3 name=EC mapped_smiles="[C:1]1([H:7])([H:8])[C:2]([H:9])([H:10])[O:3][C:4](=[O:5])[O:6]1" pbc="F F F"
C        4.25052643      -3.66436768      -2.96047783
C        3.30808258      -4.43136024      -2.02458382
O        4.10196304      -5.22842598      -1.18020821
C        5.36553192      -5.17184448      -1.63318253
O        6.21875763      -5.76227951      -1.16794205
O        5.51119995      -4.36999702      -2.75005531
H        4.40626144      -2.60014534      -2.66258430
H        4.01366043      -3.69862747      -4.06898880
H        2.59909821      -5.13328552      -2.60225487
H        2.84842300      -3.74785423      -1.33479500
10
Properties=species:S:1:pos:R:3 name=EC mapped_smiles="[C:1]1([H:7])([H:8])[C:2]([H:9])([H:10])[O:3][C:4](=[O:5])[O:6]1" pbc="F F F"
C       -1.17625427       4.98022842      -2.38047409
C       -1.97563744       6.20447540      -2.02079010
O       -0.96115494       7.06631088      -1.64344025
C        0.17024231       6.77649307      -2.33496857
O        1.08755112       7.47367096      -2.45814514
O        0.06604958       5.55945206      -2.89017487
H       -1.70246506       4.36050034      -3.09507370
H       -1.00347900       4.38000488      -1.45843124
H       -2.68214417       5.94403458      -1.17654037
H       -2.39972687       6.70625687      -2.92787170
10
Properties=species:S:1:pos:R:3 name=EC mapped_smiles="[C:1]1([H:7])([H:8])[C:2]([H:9])([H:10])[O:3][C:4](=[O:5])[O:6]1" pbc="F F F"
C       -1.61982346      -4.39202499       2.29333115
C       -1.53247070      -3.04951286       3.09624100
O       -2.68724060      -2.25796127       2.64323044
C       -3.17995834      -2.82939911       1.50916862
O       -4.16518974      -2.47189331       0.95711899
O       -2.53736496      -4.02709198       1.21980858
H       -1.96825218      -5.35560036       2.83007431
H       -0.58042717      -4.68944550       2.02318764
H       -0.58474731      -2.43585014       2.93402863
H       -1.64515495      -3.20880890       4.15975952
10
Properties=species:S:1:pos:R:3 name=EC mapped_smiles="[C:1]1([H:7])([H:8])[C:2]([H:9])([H:10])[O:3][C:4](=[O:5])[O:6]1" pbc="F F F"
C        4.40097427       2.86810684      -1.13537979
C        3.44157028       1.71942902      -0.89035225
O        3.81493378       1.21592712       0.41946411
C        4.76143265       2.09989548       0.94421196
O        5.22680283       1.94294357       2.06007957
O        5.12825012       3.06014633       0.08859825
H        3.87071991       3.83087540      -1.28177071
H        5.15854263       2.68235397      -1.97156143
H        3.52268982       0.92795563      -1.64112282
H        2.38179016       2.01081848      -0.87286568
10
Properties=species:S:1:pos:R:3 name=EC mapped_smiles="[C:1]1([H:7])([H:8])[C:2]([H:9])([H:10])[O:3][C:4](=[O:5])[O:6]1" pbc="F F F"
C        8.61968231      -1.12562370      -5.06693649
C        8.79861450      -0.18267250      -3.82872009
O        7.72517776      -0.57342148      -2.91398430
C        6.86700439      -1.36028671      -3.55684853
O        5.87047577      -1.83590508      -3.09972954
O        7.31199455      -1.56467438      -4.77801704
H        9.20234299      -2.05110741      -5.15102196
H        8.47875977      -0.68061066      -5.96927643
H        8.57108307       0.86817551      -4.08735275
H        9.75057983      -0.28794098      -3.24040794
10
Properties=species:S:1:pos:R:3 name=EC mapped_smiles="[C:1]1([H:7])([H:8])[C:2]([H:9])([H:10])[O:3][C:4](=[O:5])[O:6]1" pbc="F F F"
C       -2.79907227      -2.95480347      -2.27819061
C       -4.12924004      -2.15858078      -2.49048615
O       -4.02893639      -1.61948776      -3.79959106
C       -2.71487427      -1.80784416      -4.26680565
O       -2.33109283      -1.42522430      -5.34806442
O       -1.95208740      -2.44500542      -3.32288170
H       -2.84165192      -4.03410530      -2.38814163
H       -2.38485336      -2.71145248      -1.33621979
H       -4.25314903      -1.45475006      -1.72519302
H       -5.06570816      -2.76680565      -2.50712013
10
Properties=species:S:1:pos:R:3 name=EC mapped_smiles="[C:1]1([H:7])([H:8])[C:2]([H:9])([H:10])[O:3][C:4](=[O:5])[O:6]1" pbc="F F F"
C        0.61116791      -4.43455505      -0.69695854
C        1.40163422      -5.10207367      -1.81562424
O        1.13672256      -4.29953003      -2.99185562
C        0.01563644      -3.47812653      -2.74623871
O       -0.40255547      -2.70724487      -3.56689072
O       -0.35650253      -3.66366577      -1.45367432
H        1.33687592      -3.85387421      -0.11217880
H        0.06102943      -5.19088745      -0.09334755
H        1.14919662      -6.10546875      -2.07092285
H        2.51126099      -5.10179901      -1.62604332
10
Properties=species:S:1:pos:R:3 name=EC mapped_smiles="[C:1]1([H:7])([H:8])[C:2]([H:9])([H:10])[O:3][C:4](=[O:5])[O:6]1" pbc="F F F"
C        4.51150703       1.95597076       3.03238678
C        3.75871468       2.40178490       1.78570366
O        2.41741943       2.73429108       2.09153175
C        2.18870735       2.17108154       3.33746910
O        1.07390785       1.96745682       3.78850746
O        3.37362862       1.83232880       3.92498398
H        5.17003059       2.73394394       3.48566055
H        5.13456535       1.04664421       2.91812897
H        3.66482544       1.49385834       1.15827179
H        4.27092934       3.06195831       1.09872055
10
Properties=species:S:1:pos:R:3 name=EC mapped_smiles="[C:1]1([H:7])([H:8])[C:2]([H:9])([H:10])[O:3][C:4](=[O:5])[O:6]1" pbc="F F F"
C       -3.82286072       2.63557053      -2.17330551
C       -5.18629646       2.28923416      -1.63047981
O       -5.22935867       0.90835381      -1.66828156
C       -3.91985512       0.35643387      -1.65357590
O       -3.59766960      -0.82433510      -1.66780853
O       -3.08108902       1.38087082      -1.97660637
H       -3.39381981       3.40629768      -1.62532425
H       -3.83614159       2.99317360      -3.18103981
H       -5.92823601       2.81209564      -2.24150276
H       -5.22257042       2.57185936      -0.52585602
10
Properties=species:S:1:pos:R:3 name=EC mapped_smiles="[C:1]1([H:7])([H:8])[C:2]([H:9])([H:10])[O:3][C:4](=[O:5])[O:6]1" pbc="F F F"
C       -3.81277847       3.10157394      -3.51917267
C       -5.30830956       2.92941475      -3.16653442
O       -5.45286179       1.54427910      -2.82050133
C       -4.34419060       0.85049438      -3.07488060
O       -4.15781212      -0.30039978      -2.75963211
O       -3.44651985       1.67343521      -3.58142662
H       -3.17955399       3.58557892      -2.78083420
H       -3.54553986       3.64098549      -4.41514397
H       -6.05404663       3.18163872      -3.97998428
H       -5.58861923       3.59490395      -2.35879135
10
Properties=species:S:1:pos:R:3 name=EC mapped_smiles="[C:1]1([H:7])([H:8])[C:2]([H:9])([H:10])[O:3][C:4](=[O:5])[O:6]1" pbc="F F F"
C        0.57920456       3.27160835      -5.90166473
C       -0.58832550       2.61140823      -6.66709518
O        0.10715866       1.66655922      -7.53743362
C        1.49223328       1.66800308      -7.35314941
O        2.32659531       1.10882568      -8.05500603
O        1.83214951       2.57938385      -6.35349846
H        0.45483398       3.32150841      -4.76343536
H        0.52311707       4.30841255      -6.30030060
H       -1.12428665       3.31220818      -7.22871017
H       -1.25405884       2.06723785      -6.01960754
