15
Properties=species:S:1:pos:R:3 name=EMC mapped_smiles="[C:1]([C:2]([O:3][C:4](=[O:5])[O:6][C:7]([H:13])([H:14])[H:15])([H:11])[H:12])([H:8])([H:9])[H:10]" pbc="F F F"
C        5.59852982      -1.34115601       7.71002579
C        5.84217834      -1.74266815       6.28401947
O        4.59066010      -2.33823395       5.70151138
C        3.61185074      -1.45455933       5.25290680
O        3.59054184      -0.24749756       5.44346619
O        2.61462402      -2.20557022       4.82043457
C        1.52230072      -1.44007111       4.21927261
H        5.43252563      -2.26091766       8.32736969
H        4.76636505      -0.70237350       7.82361984
H        6.43019867      -0.76218414       8.18969345
H        6.09843445      -0.82383347       5.70304871
H        6.62434769      -2.44787598       6.22739029
H        0.92350769      -1.11113739       5.04584885
H        1.04051971      -2.16232681       3.53922653
H        1.94117737      -0.63280487       3.65517807
15
Properties=species:S:1:pos:R:3 name=EMC mapped_smiles="[C:1]([C:2]([O:3][C:4](=[O:5])[O:6][C:7]([H:13])([H:14])[H:15])([H:11])[H:12])([H:8])([H:9])[H:10]" pbc="F F F"
C        1.20471573       5.97131348       2.61060333
C        0.87266159       4.54266357       2.15744781
O        1.53125954       3.61698532       3.00282669
C        2.28126717       2.67259598       2.39649200
O        2.32615662       2.38246536       1.20286560
O        2.99679184       2.11500931       3.41728592
C        3.86284447       0.98983383       3.19223022
H        0.64953423       6.25749207       3.47455215
H        0.85799599       6.62327576       1.84626770
H        2.29209518       6.08463669       2.70492172
H       -0.19970894       4.26215744       2.22168732
H        1.02724838       4.40819931       1.03606415
H        4.67004585       1.00484467       3.98669052
H        4.39547920       1.00886154       2.23484421
H        3.35437584       0.00310516       3.21290207
15
Properties=species:S:1:pos:R:3 name=EMC mapped_smiles="[C:1]([C:2]([O:3][C:4](=[O:5])[O:6][C:7]([H:13])([H:14])[H:15])([H:11])[H:12])([H:8])([H:9])[H:10]" pbc="F F F"
C        0.00000000       0.00000000       0.00000000
C       -1.48947906       0.39063263       0.02604866
O       -2.30729675      -0.70928574       0.40144920
C       -2.27615166      -1.24131012       1.64786148
O       -1.35440636      -0.98563004       2.39176559
O       -3.29679680      -2.08267593       1.87897110
C       -3.17232323      -2.77102661       3.12025833
H        0.21242905      -0.56840515       0.91487503
H        0.74651718       0.81222534       0.06132126
H        0.27292252      -0.63829422      -0.80022430
H       -1.62135887       1.20516968       0.69564819
H       -1.86804390       0.71855545      -0.95829773
H       -3.30409050      -2.09981918       3.97527695
H       -2.19672585      -3.12021446       3.19972992
H       -3.92430305      -3.53050804       3.15575409
15
Properties=species:S:1:pos:R:3 name=EMC mapped_smiles="[C:1]([C:2]([O:3][C:4](=[O:5])[O:6][C:7]([H:13])([H:14])[H:15])([H:11])[H:12])([H:8])([H:9])[H:10]" pbc="F F F"
C        0.00000000       0.00000000       0.00000000
C       -0.12756729       1.43620110      -0.20172501
O       -1.58571815       1.80511093      -0.03391647
C       -2.58318329       1.38912582      -0.84749222
O       -2.50225258       0.78044701      -1.85329056
O       -3.74967957       1.92253494      -0.35961151
C       -4.94570923       1.62398529      -1.07890701
H       -0.33768272      -0.32769203       0.96098328
H        1.01861382      -0.31544495      -0.07938385
H       -0.51350021      -0.53212738      -0.79019928
H        0.41220856       1.99968147       0.57026672
H        0.16283226       1.82522202      -1.14951706
H       -4.95359802       0.64406204      -1.45700455
H       -4.97515106       2.26964188      -2.02425385
H       -5.76704407       1.83445358      -0.43956757
15
Properties=species:S:1:pos:R:3 name=EMC mapped_smiles="[C:1]([C:2]([O:3][C:4](=[O:5])[O:6][C:7]([H:13])([H:14])[H:15])([H:11])[H:12])([H:8])([H:9])[H:10]" pbc="F F F"
C        0.00000000       0.00000000       0.00000000
C        0.26613235       0.95716858       1.09729004
O       -0.06256866       0.32184219       2.35574341
C       -0.18154335       1.08390808       3.48324966
O       -0.24597549       2.27894592       3.60874176
O       -0.32489777       0.22271347       4.50794601
C       -0.57867241       0.90689087       5.75898743
H        0.23460388       0.47799683      -0.96779251
H       -1.04242706      -0.31060410       0.08055115
H        0.69425583      -0.78768921       0.14062500
H        1.33426666       1.18181610       1.13794708
H       -0.34233093       1.88206100       0.90379715
H       -0.51660728       0.17744827       6.57468796
H       -1.47665787       1.51257706       5.78277969
H        0.28004074       1.65694809       5.87026596
15
Properties=species:S:1:pos:R:3 name=EMC mapped_smiles="[C:1]([C:2]([O:3][C:4](=[O:5])[O:6][C:7]([H:13])([H:14])[H:15])([H:11])[H:12])([H:8])([H:9])[H:10]" pbc="F F F"
C        6.05554771       4.16545868       0.48925400
C        5.28277016       4.81663513      -0.71175003
O        6.09559250       4.91203690      -1.79253387
C        5.84204674       4.38449860      -3.00653839
O        4.91621017       3.58422089      -3.23540878
O        6.82534790       4.68701935      -3.80779648
C        6.79162598       4.38434219      -5.17290497
H        6.15492439       3.10147858       0.38237381
H        5.52454567       4.31364822       1.42152405
H        7.01494980       4.69077682       0.60000610
H        4.44162369       4.16524506      -0.85176849
H        4.88437653       5.79203796      -0.36858368
H        7.65705109       3.87721252      -5.58532143
H        6.68981934       5.32354355      -5.72491074
H        5.96548843       3.70259476      -5.33842278
15
Properties=species:S:1:pos:R:3 name=EMC mapped_smiles="[C:1]([C:2]([O:3][C:4](=[O:5])[O:6][C:7]([H:13])([H:14])[H:15])([H:11])[H:12])([H:8])([H:9])[H:10]" pbc="F F F"
C        7.64675713      -9.79616356       2.91113663
C        8.16279602      -8.47975922       3.39230347
O        7.59743881      -7.27707291       2.72945404
C        6.44100761      -6.82925415       3.31647873
O        5.85881042      -7.36501694       4.22723770
O        6.03103065      -5.77461624       2.57588959
C        4.81921005      -5.02985764       2.84402084
H        8.36659241     -10.56493759       3.17549896
H        7.55926132      -9.91258812       1.83782959
H        6.60406303     -10.00314903       3.40782547
H        8.21557617      -8.44279480       4.53188705
H        9.23468018      -8.39584923       3.04316711
H        4.85030746      -4.06278229       2.42652512
H        4.81247902      -4.91239166       3.89988327
H        3.92178345      -5.60633469       2.49623871
15
Properties=species:S:1:pos:R:3 name=EMC mapped_smiles="[C:1]([C:2]([O:3][C:4](=[O:5])[O:6][C:7]([H:13])([H:14])[H:15])([H:11])[H:12])([H:8])([H:9])[H:10]" pbc="F F F"
C        1.30834198      -4.64035797      -7.01271439
C        2.72805405      -4.24198532      -7.29763794
O        2.90400314      -2.80440331      -6.76595688
C        3.18584442      -2.62765312      -5.43406296
O        2.93140030      -3.43200302      -4.49769592
O        3.73717880      -1.38005638      -5.21053314
C        3.79383087      -0.97596741      -3.78428650
H        1.07098007      -5.60912895      -7.44686508
H        0.64336395      -3.89409256      -7.39332962
H        1.13686371      -4.74170113      -5.93534088
H        3.43641281      -4.92718124      -6.76505280
H        2.94516373      -4.21122360      -8.35622883
H        2.86161041      -0.64232254      -3.37909698
H        4.61435318      -0.20449448      -3.61702728
H        4.16252136      -1.83148003      -3.29596710
15
Properties=species:S:1:pos:R:3 name=EMC mapped_smiles="[C:1]([C:2]([O:3][C:4](=[O:5])[O:6][C:7]([H:13])([H:14])[H:15])([H:11])[H:12])([H:8])([H:9])[H:10]" pbc="F F F"
C        1.62826920       0.43799400       4.00232315
C        2.32999039      -0.77657700       3.61349487
O        1.42485046      -1.84214973       3.44947433
C        0.76116943      -1.90060425       2.29985809
O        0.71842194      -1.17852783       1.33164215
O       -0.11500931      -2.91833305       2.44862366
C       -1.13723755      -3.16856384       1.55471039
H        2.35162735       1.15715790       4.30771637
H        0.97498322       0.26845741       4.78122330
H        1.04218292       0.90671539       3.22482681
H        2.83263397      -0.63225746       2.64929581
H        3.02835464      -1.12291527       4.43478012
H       -1.56245804      -2.16765976       1.24283600
H       -1.80871964      -3.93920517       1.97323608
H       -0.80360794      -3.56185913       0.61204910
15
Properties=species:S:1:pos:R:3 name=EMC mapped_smiles="[C:1]([C:2]([O:3][C:4](=[O:5])[O:6][C:7]([H:13])([H:14])[H:15])([H:11])[H:12])([H:8])([H:9])[H:10]" pbc="F F F"
C       -6.74190140      -3.96423340       1.33352470
C       -5.39143753      -3.18423462       1.47141457
O       -4.49284363      -3.75640869       0.56216049
C       -4.63872147      -3.40971375      -0.69981956
O       -5.41389465      -2.62291718      -1.20980453
O       -3.71328354      -4.19609070      -1.29127312
C       -3.47417068      -4.13716125      -2.70158005
H       -7.16338730      -3.70660400       0.42231560
H       -7.26757050      -3.60270691       2.25570297
H       -6.51816177      -5.08152771       1.49715996
H       -5.53184891      -2.13253021       1.23733902
H       -5.05741501      -3.30035400       2.51349258
H       -4.35110092      -3.76605225      -3.25572395
H       -3.20808029      -5.14429474      -3.00280952
H       -2.61015320      -3.51099396      -2.83078766
15
Properties=species:S:1:pos:R:3 name=EMC mapped_smiles="[C:1]([C:2]([O:3][C:4](=[O:5])[O:6][C:7]([H:13])([H:14])[H:15])([H:11])[H:12])([H:8])([H:9])[H:10]" pbc="F F F"
C       -2.17765999      -7.00133514       5.70329857
C       -2.42479324      -7.30872345       4.23804665
O       -1.49794388      -6.45629501       3.53906631
C       -1.90079117      -5.26541901       3.02267838
O       -3.03151703      -4.82388496       2.84615898
O       -0.77023697      -4.54267693       2.61491013
C       -0.87092972      -3.71496201       1.45544434
H       -1.24809647      -7.37511635       5.99049950
H       -3.00810242      -7.44865990       6.27026749
H       -2.14794159      -5.92379761       5.89905357
H       -2.09861183      -8.34346962       3.99017715
H       -3.44320297      -7.06521225       3.85950851
H        0.04679489      -3.23678589       1.34224129
H       -1.71519089      -2.88805389       1.66429138
H       -1.22938919      -4.34957504       0.61334229
15
Properties=species:S:1:pos:R:3 name=EMC mapped_smiles="[C:1]([C:2]([O:3][C:4](=[O:5])[O:6][C:7]([H:13])([H:14])[H:15])([H:11])[H:12])([H:8])([H:9])[H:10]" pbc="F F F"
C        3.07305145      -2.87298584      -7.58704758
C        4.53566742      -2.84914589      -7.32202911
O        4.79708862      -1.64728165      -6.51282883
C        4.46323395      -1.54426193      -5.19468689
O        3.97258377      -2.33545685      -4.42468643
O        4.82143784      -0.30125237      -4.89025879
C        5.10115051       0.08126259      -3.51103210
H        2.69307327      -2.81806183      -6.52117538
H        2.72914124      -3.85099030      -7.99662399
H        2.74282074      -2.00594330      -8.22860622
H        4.86249161      -3.71886063      -6.76071167
H        5.18363571      -2.85232544      -8.16072369
H        5.97367859       0.70606613      -3.38468552
H        5.14649582      -0.86813354      -2.95770264
H        4.21580887       0.63036537      -3.12059784
15
Properties=species:S:1:pos:R:3 name=EMC mapped_smiles="[C:1]([C:2]([O:3][C:4](=[O:5])[O:6][C:7]([H:13])([H:14])[H:15])([H:11])[H:12])([H:8])([H:9])[H:10]" pbc="F F F"
C       -4.60844994       8.67238235      -2.03168106
C       -5.74110794       7.77756882      -1.52576828
O       -5.12042427       6.48233604      -1.07864380
C       -4.85552788       6.17123032       0.19437027
O       -4.34296799       5.12554741       0.53479767
O       -5.34308624       7.10733414       1.02676773
C       -5.19429588       6.93326950       2.48983383
H       -4.96521187       9.51778412      -2.57711792
H       -4.03544617       8.07840729      -2.82009888
H       -4.03445816       8.92098236      -1.17258453
H       -6.33292770       8.12232971      -0.70776367
H       -6.51118469       7.51144218      -2.32800674
H       -5.74862480       6.02269173       2.77476120
H       -5.63790131       7.82633972       2.93852615
H       -4.12434196       6.99281502       2.67395020
15
Properties=species:S:1:pos:R:3 name=EMC mapped_smiles="[C:1]([C:2]([O:3][C:4](=[O:5])[O:6][C:7]([H:13])([H:14])[H:15])([H:11])[H:12])([H:8])([H:9])[H:10]" pbc="F F F"
C        0.00000000       0.00000000       0.00000000
C        0.71989441      -0.77346611      -1.07865143
O        0.46410370      -0.22566223      -2.33197021
C        0.59056854      -1.01385307      -3.42885971
O        1.21730995      -2.02399063      -3.49511719
O       -0.11372566      -0.40352631      -4.40611649
C       -0.57763100      -1.33549690      -5.32862854
H       -1.03635025      -0.18364143       0.04080582
H        0.21614456       1.08776855      -0.14086151
H        0.35975647      -0.40964699       0.93054962
H        1.79957771      -0.61924171      -0.90316772
H        0.38576126      -1.84561539      -0.96106720
H        0.28200722      -1.85256195      -5.83187866
H       -1.10485840      -0.82717514      -6.13693619
H       -1.24150085      -2.03906441      -4.83296204
15
Properties=species:S:1:pos:R:3 name=EMC mapped_smiles="[C:1]([C:2]([O:3][C:4](=[O:5])[O:6][C:7]([H:13])([H:14])[H:15])([H:11])[H:12])([H:8])([H:9])[H:10]" pbc="F F F"
C        0.00000000       0.00000000       0.00000000
C       -0.87354088       0.77380562      -0.89559174
O       -0.57156944       0.47921371      -2.34448624
C       -1.24478149      -0.51344681      -2.93442535
O       -1.79421043      -1.42894363      -2.37400818
O       -1.34702110      -0.32844162      -4.27608871
C       -2.12442780      -1.27731514      -5.00905991
H        1.05741310      -0.01786423      -0.43542099
H       -0.41510963      -1.02165985       0.19262314
H        0.07189751       0.45309830       0.96660614
H       -1.93719864       0.63402939      -0.78311539
H       -0.69976044       1.87041473      -0.72712708
H       -2.29154587      -0.80334091      -5.92903137
H       -3.15744972      -1.26863480      -4.59476089
H       -1.65765381      -2.28325081      -4.97703934
15
Properties=species:S:1:pos:R:3 name=EMC mapped_smiles="[C:1]([C:2]([O:3][C:4](=[O:5])[O:6][C:7]([H:13])([H:14])[H:15])([H:11])[H:12])([H:8])([H:9])[H:10]" pbc="F F F"
C        0.00000000       0.00000000       0.00000000
C       -0.37218666      -1.23545647      -0.88297653
O       -0.83482361      -2.29660034       0.05972290
C       -0.03500366      -3.12913704       0.67085266
O       -0.46149445      -4.02005768       1.44926643
O        1.33987808      -2.87434578       0.53450394
C        2.16298294      -3.82802963       1.27534485
H        0.60391617       0.70724869      -0.60376358
H        0.54470444      -0.28129578       0.84956741
H       -0.86226273       0.57108498       0.36943245
H       -1.15050125      -1.00548172      -1.67484856
H        0.47854233      -1.68153000      -1.37335205
H        2.04777527      -3.65342712       2.29114914
H        3.18136597      -3.55998230       0.87784195
H        1.85708427      -4.75847816       0.81548691
15
Properties=species:S:1:pos:R:3 name=EMC mapped_smiles="[C:1]([C:2]([O:3][C:4](=[O:5])[O:6][C:7]([H:13])([H:14])[H:15])([H:11])[H:12])([H:8])([H:9])[H:10]" pbc="F F F"
C        2.66359711       0.36663818      -2.36961365
C        3.59455109      -0.81674767      -2.50796509
O        3.18488884      -2.11730576      -2.01290894
C        2.92415619      -2.34382629      -0.73772049
O        3.06377411      -1.59042931       0.26919174
O        2.43385315      -3.56281090      -0.58945084
C        2.06513596      -3.88672829       0.81459618
H        2.91884422       1.11479568      -3.12785339
H        2.75643349       0.86688805      -1.40641212
H        1.59934235       0.02602005      -2.54875183
H        3.74897003      -1.05498886      -3.57619476
H        4.54557037      -0.62451744      -2.10228729
H        1.13302422      -3.44071960       1.05503464
H        2.77051926      -3.48780060       1.53196526
H        2.15061378      -4.93966866       0.93332863
15
Properties=species:S:1:pos:R:3 name=EMC mapped_smiles="[C:1]([C:2]([O:3][C:4](=[O:5])[O:6][C:7]([H:13])([H:14])[H:15])([H:11])[H:12])([H:8])([H:9])[H:10]" pbc="F F F"
C        0.00000000       0.00000000       0.00000000
C        1.51135826      -0.12244797       0.10689926
O        2.21240997       0.73587036      -0.83331680
C        2.18443871       2.04928207      -0.72905350
O        1.54408836       2.65804291       0.14554977
O        2.90836525       2.60715866      -1.70921326
C        2.80979156       4.03225708      -2.00803185
H       -0.31579018       0.91754532       0.54676628
H       -0.38623047      -0.91946411       0.51583290
H       -0.42030907       0.00067520      -1.04514313
H        1.95979118       0.13868332       1.07525253
H        1.84072495      -1.16709900      -0.08875656
H        2.07970238       4.14579391      -2.75355530
H        3.73031235       4.25666428      -2.61516953
H        2.76936913       4.68388367      -1.14636993
15
Properties=species:S:1:pos:R:3 name=EMC mapped_smiles="[C:1]([C:2]([O:3][C:4](=[O:5])[O:6][C:7]([H:13])([H:14])[H:15])([H:11])[H:12])([H:8])([H:9])[H:10]" pbc="F F F"
C       -1.27899933       3.25761795       0.81447983
C       -1.90461349       2.34572601       1.93124390
O       -3.05613708       2.85913086       2.57147217
C       -4.31876183       2.80825424       1.98678207
O       -4.53485870       2.07202911       1.06186295
O       -5.11418152       3.79191971       2.64350891
C       -6.23476601       4.21163559       1.85429001
H       -1.10108757       4.27186203       1.15984726
H       -1.87929153       3.39295197      -0.00768280
H       -0.26895332       2.93132019       0.43443298
H       -2.22422791       1.40779877       1.50466919
H       -1.13770294       2.14510727       2.68884659
H       -5.82980728       4.69927216       0.97944641
H       -6.82645035       4.93161392       2.42211151
H       -6.84517670       3.33730316       1.51742172
15
Properties=species:S:1:pos:R:3 name=EMC mapped_smiles="[C:1]([C:2]([O:3][C:4](=[O:5])[O:6][C:7]([H:13])([H:14])[H:15])([H:11])[H:12])([H:8])([H:9])[H:10]" pbc="F F F"
C        0.00000000       0.00000000       0.00000000
C        1.13574982      -0.28792953      -0.82834816
O        1.74401665      -1.54165268      -0.46582985
C        2.55702019      -1.59048843       0.62213135
O        3.19702911      -0.69998932       1.18991089
O        2.75277901      -2.83429909       0.89740181
C        3.52463341      -3.26310730       2.07444382
H       -0.72744179      -0.85272598       0.05655098
H       -0.48051262       0.81482124      -0.46712303
H        0.26000977       0.32228088       1.00950050
H        0.88577652      -0.41138268      -1.92004204
H        1.81816483       0.53732681      -0.70644760
H        3.20953369      -2.84091377       3.00674057
H        4.54165840      -2.91846848       1.96345901
H        3.54424286      -4.38252449       2.10139847
15
Properties=species:S:1:pos:R:3 name=EMC mapped_smiles="[C:1]([C:2]([O:3][C:4](=[O:5])[O:6][C:7]([H:13])([H:14])[H:15])([H:11])[H:12])([H:8])([H:9])[H:10]" pbc="F F F"
C        0.00000000       0.00000000       0.00000000
C       -0.86520195      -0.97733688      -0.64377594
O       -0.61443138      -0.86231995      -2.04951859
C       -1.53397369      -1.36695480      -2.94268036
O       -2.58433533      -2.00070953      -2.73013687
O       -1.13245392      -0.99244308      -4.17513275
C       -2.05567169      -1.38850021      -5.16245079
H       -0.31643105      -0.05797577       1.05101585
H       -0.17507553       1.00187683      -0.44230843
H        1.07583046      -0.28188324      -0.00500488
H       -0.60053253      -1.97806931      -0.30666161
H       -1.91006470      -0.80410767      -0.46424484
H       -1.56508636      -1.35163498      -6.14860535
H       -2.94139099      -0.69982910      -5.16819191
H       -2.40727234      -2.43291473      -4.90960312
15
Properties=species:S:1:pos:R:3 name=EMC mapped_smiles="[C:1]([C:2]([O:3][C:4](=[O:5])[O:6][C:7]([H:13])([H:14])[H:15])([H:11])[H:12])([H:8])([H:9])[H:10]" pbc="F F F"
C        0.00000000       0.00000000       0.00000000
C       -0.22060585       0.17225266      -1.46622467
O       -0.15975380       1.58974457      -1.73742676
C        0.03977203       2.17244720      -2.96436310
O        0.05352974       1.58951187      -4.01846313
O        0.30341148       3.47330093      -2.78289032
C        0.94881439       4.27539444      -3.80847168
H       -0.57799721      -0.89289093       0.27617645
H       -0.32718468       0.96309662       0.50449371
H        1.10175133      -0.09402847       0.19314575
H        0.50481033      -0.23358154      -2.13945770
H       -1.20511818      -0.19130325      -1.76409149
H        1.24815178       5.26710510      -3.42933655
H        0.25026703       4.38099670      -4.61694336
H        1.83899498       3.79629517      -4.24812317
15
Properties=species:S:1:pos:R:3 name=EMC mapped_smiles="[C:1]([C:2]([O:3][C:4](=[O:5])[O:6][C:7]([H:13])([H:14])[H:15])([H:11])[H:12])([H:8])([H:9])[H:10]" pbc="F F F"
C       -1.55944443      -5.68595886       9.95384979
C       -0.22216415      -5.20154190       9.38360596
O       -0.29538727      -4.76702499       7.97662163
C        0.76356506      -4.27336121       7.43111038
O        1.81159782      -4.05833817       8.01205063
O        0.58315277      -4.28322983       6.07772446
C        1.42717934      -3.36640930       5.26004219
H       -1.56148720      -5.71640778      11.06661224
H       -1.79051781      -6.66087723       9.53044128
H       -2.39879227      -5.05161667       9.77116394
H        0.23301697      -4.45373154       9.97302246
H        0.42338371      -6.06457520       9.41424561
H        1.69796562      -3.75040817       4.27403069
H        2.24980164      -3.07900620       5.90975761
H        0.87249756      -2.44245529       5.15708923
15
Properties=species:S:1:pos:R:3 name=EMC mapped_smiles="[C:1]([C:2]([O:3][C:4](=[O:5])[O:6][C:7]([H:13])([H:14])[H:15])([H:11])[H:12])([H:8])([H:9])[H:10]" pbc="F F F"
C        7.93135834       0.67416763      -0.22266960
C        7.10334396       1.58133888       0.63266373
O        6.60328293       0.90904808       1.83967972
C        5.27288628       0.76103783       1.94495010
O        4.39116478       0.83061028       1.06728935
O        4.97527313       0.40408134       3.20912933
C        3.67916870       0.49998093       3.72554398
H        8.94484329       0.56437302       0.32907295
H        8.11531067       1.09707451      -1.23323250
H        7.44978714      -0.28909874      -0.39091110
H        7.57454681       2.49197388       0.91842270
H        6.25679970       1.79177666       0.04037666
H        3.46823502      -0.35387993       4.35907173
H        2.95606613       0.45727539       2.89642143
H        3.58873940       1.41209030       4.31529999
15
Properties=species:S:1:pos:R:3 name=EMC mapped_smiles="[C:1]([C:2]([O:3][C:4](=[O:5])[O:6][C:7]([H:13])([H:14])[H:15])([H:11])[H:12])([H:8])([H:9])[H:10]" pbc="F F F"
C        0.00000000       0.00000000       0.00000000
C       -1.23296165      -0.18894577      -0.92211533
O       -0.95388412      -0.57774353      -2.35831070
C       -1.98981857      -0.41271210      -3.23260498
O       -3.15059090      -0.34387970      -2.85154343
O       -1.52882957      -0.46509171      -4.48335266
C       -2.43608665      -0.47336197      -5.58904457
H        0.38867569       1.00488281      -0.20056534
H        0.76909637      -0.71615219      -0.21529579
H       -0.32998848      -0.13171387       1.05586815
H       -1.80192947      -1.08987045      -0.50537491
H       -1.80084610       0.72357941      -0.96319962
H       -3.02325058       0.37287903      -5.45346451
H       -3.14401627      -1.35159302      -5.54106903
H       -1.79743767      -0.51954269      -6.47092247
15
Properties=species:S:1:pos:R:3 name=EMC mapped_smiles="[C:1]([C:2]([O:3][C:4](=[O:5])[O:6][C:7]([H:13])([H:14])[H:15])([H:11])[H:12])([H:8])([H:9])[H:10]" pbc="F F F"
C        0.00000000       0.00000000       0.00000000
C       -0.69695282      -1.19418716      -0.64390182
O       -1.66511917      -0.83353043      -1.60800552
C       -1.16663361      -0.33335114      -2.73511124
O       -0.04034805      -0.19559479      -3.03852081
O       -2.25554276      -0.22039795      -3.52339172
C       -2.15865707      -0.05556870      -4.94230270
H        0.87184525      -0.42010498       0.51941681
H       -0.55444717       0.49586105       0.80627441
H        0.33860779       0.77148056      -0.65715408
H       -0.02571869      -1.95420837      -1.11528778
H       -1.25512314      -1.76497269       0.12897873
H       -2.63958740       0.84239578      -5.23352432
H       -2.82110596      -0.82621384      -5.40628433
H       -1.07993698      -0.13333130      -5.27146149
15
Properties=species:S:1:pos:R:3 name=EMC mapped_smiles="[C:1]([C:2]([O:3][C:4](=[O:5])[O:6][C:7]([H:13])([H:14])[H:15])([H:11])[H:12])([H:8])([H:9])[H:10]" pbc="F F F"
C        0.00000000       0.00000000       0.00000000
C       -1.14335442      -0.77231216       0.48350143
O       -2.09278297       0.14458084       0.79079056
C       -2.01540375       0.74248505       2.03965378
O       -1.21048546       0.38693237       2.90024567
O       -2.89953804       1.80036545       2.14870834
C       -2.72239304       2.51816559       3.38195038
H        0.69576645      -0.80932236      -0.29332733
H        0.50334358       0.73305511       0.71292496
H       -0.23010254       0.56745529      -0.92477036
H       -1.58879471      -1.45276260      -0.31065750
H       -0.86747932      -1.44056320       1.33936691
H       -2.90112686       1.95197678       4.28769302
H       -3.40528297       3.33388138       3.40669632
H       -1.63309669       2.86148453       3.43624496
15
Properties=species:S:1:pos:R:3 name=EMC mapped_smiles="[C:1]([C:2]([O:3][C:4](=[O:5])[O:6][C:7]([H:13])([H:14])[H:15])([H:11])[H:12])([H:8])([H:9])[H:10]" pbc="F F F"
C       -0.07340622      -6.00579834      -6.50490570
C       -0.27942657      -4.84458923      -7.44420433
O       -1.70391083      -4.87187195      -7.89029312
C       -2.68136215      -4.16574097      -7.28632355
O       -2.56914139      -3.56452942      -6.22201538
O       -3.77255821      -4.10343933      -8.08513451
C       -4.92338562      -3.40714264      -7.54233932
H       -0.71019745      -5.93254089      -5.60818100
H        0.96182823      -5.89678955      -6.17935181
H       -0.24633217      -6.97264099      -7.01730919
H       -0.07802773      -3.92852783      -6.94619942
H        0.24524689      -4.85047150      -8.37318611
H       -5.79453278      -3.52904510      -8.13695145
H       -4.65591049      -2.36337280      -7.40654755
H       -5.15077400      -3.86933899      -6.59827232
15
Properties=species:S:1:pos:R:3 name=EMC mapped_smiles="[C:1]([C:2]([O:3][C:4](=[O:5])[O:6][C:7]([H:13])([H:14])[H:15])([H:11])[H:12])([H:8])([H:9])[H:10]" pbc="F F F"
C       -4.23672104      -1.43378830      -1.58371353
C       -4.81570053      -0.67329025      -0.45186234
O       -5.85174561       0.22181702      -0.90979767
C       -6.12009430       1.36832428      -0.24016190
O       -5.52209091       1.85283279       0.69251633
O       -7.32368469       1.74283981      -0.74145889
C       -7.72619629       3.12785339      -0.47645187
H       -3.75276947      -2.34312057      -1.19636536
H       -3.57228088      -0.87977600      -2.26439285
H       -4.98395538      -1.83404160      -2.23104477
H       -5.21213913      -1.34815598       0.28458786
H       -4.18065643      -0.01237488       0.12688828
H       -7.84754944       3.32329559       0.62363052
H       -8.68333817       3.27489471      -0.97602463
H       -7.01395416       3.78276062      -0.88040924
15
Properties=species:S:1:pos:R:3 name=EMC mapped_smiles="[C:1]([C:2]([O:3][C:4](=[O:5])[O:6][C:7]([H:13])([H:14])[H:15])([H:11])[H:12])([H:8])([H:9])[H:10]" pbc="F F F"
C       -1.70412064      -8.03561115      -2.67823219
C       -1.68157959      -6.72825241      -1.90050316
O       -1.58485794      -5.64754105      -2.94496155
C       -1.03123856      -4.49109268      -2.61080742
O       -1.03988266      -3.93983078      -1.49114037
O       -0.49750519      -3.91764641      -3.73833466
C        0.26309586      -2.69756699      -3.60454750
H       -1.95197296      -8.88453293      -2.02934265
H       -0.73282623      -8.20979023      -3.16641045
H       -2.41740799      -7.87821579      -3.45906067
H       -2.65591049      -6.49014091      -1.38441086
H       -0.87510681      -6.66246796      -1.15377045
H        0.47232056      -2.30240059      -4.59618187
H        1.18743515      -2.93227768      -3.12792587
H       -0.34415436      -1.97307587      -3.06038284
15
Properties=species:S:1:pos:R:3 name=EMC mapped_smiles="[C:1]([C:2]([O:3][C:4](=[O:5])[O:6][C:7]([H:13])([H:14])[H:15])([H:11])[H:12])([H:8])([H:9])[H:10]" pbc="F F F"
C        0.00000000       0.00000000       0.00000000
C        0.31022263       1.30599213       0.65813065
O       -0.85983086       1.74848938       1.44971466
C       -1.96132278       2.21269608       0.90668869
O       -2.10013962       2.53607941      -0.26740265
O       -2.98568916       2.43223953       1.81696320
C       -4.25587845       2.90293503       1.34203339
H        0.01517296      -0.86605835       0.63591766
H        0.85887527      -0.19840622      -0.63342285
H       -0.83833313       0.03704071      -0.65563202
H        1.07418060       1.23023987       1.40851212
H        0.55977631       2.09027481      -0.08164215
H       -4.48721504       2.49007034       0.38489151
H       -4.19444084       3.95466995       1.08620453
H       -5.02191162       2.73742294       2.19360733
15
Properties=species:S:1:pos:R:3 name=EMC mapped_smiles="[C:1]([C:2]([O:3][C:4](=[O:5])[O:6][C:7]([H:13])([H:14])[H:15])([H:11])[H:12])([H:8])([H:9])[H:10]" pbc="F F F"
C        0.00000000       0.00000000       0.00000000
C        0.97504425       0.36147308       1.02045059
O        0.77341843      -0.58528709       2.10432053
C        1.72681808      -0.83060265       3.03889465
O        1.57747650      -1.67953300       3.90945053
O        2.85373688      -0.04591751       2.93363953
C        3.72795486       0.04117966       4.08186340
H        0.36945915      -0.92491150      -0.47268677
H       -0.09960175       0.69527817      -0.83472824
H       -1.02153015      -0.16513443       0.40623856
H        2.05803680       0.17352676       0.60157776
H        0.88987541       1.41353035       1.43399048
H        4.57036018       0.70883369       3.88511658
H        4.03424454      -0.92127991       4.39566803
H        2.99792099       0.42387009       4.86867142
15
Properties=species:S:1:pos:R:3 name=EMC mapped_smiles="[C:1]([C:2]([O:3][C:4](=[O:5])[O:6][C:7]([H:13])([H:14])[H:15])([H:11])[H:12])([H:8])([H:9])[H:10]" pbc="F F F"
C        0.00000000       0.00000000       0.00000000
C        0.06382751      -0.14726639       1.46619606
O        1.21321487       0.60526657       1.96343231
C        1.68373871       0.53887177       3.21204758
O        2.60057449       1.23787308       3.65934181
O        0.99705124      -0.42559814       3.84531212
C        1.15534973      -0.56658554       5.25511551
H       -0.82365799      -0.58148956      -0.41372681
H        0.92801666      -0.35814285      -0.46297073
H       -0.12714386       1.03670883      -0.37307739
H       -0.79315567       0.35196686       1.88434029
H        0.10001755      -1.18953323       1.74901390
H        0.19979095      -1.00873184       5.63099289
H        1.42700195       0.44153976       5.63677979
H        1.93333817      -1.28521347       5.35210991
15
Properties=species:S:1:pos:R:3 name=EMC mapped_smiles="[C:1]([C:2]([O:3][C:4](=[O:5])[O:6][C:7]([H:13])([H:14])[H:15])([H:11])[H:12])([H:8])([H:9])[H:10]" pbc="F F F"
C        0.00000000       0.00000000       0.00000000
C       -0.54239273      -0.00488472      -1.45115280
O       -0.83374786      -1.27351379      -1.75588226
C       -0.22174835      -1.61758232      -2.94264221
O        0.92759705      -1.40449333      -3.29142952
O       -1.10857391      -2.17381859      -3.80251884
C       -0.76301956      -2.45626450      -5.20761299
H       -0.77789688      -0.25727844       0.71539307
H        0.38249588       0.98690414       0.34231758
H        0.73601532      -0.79814148       0.07213593
H       -1.47786713       0.56857491      -1.55801964
H        0.16222954       0.44866943      -2.15061569
H       -0.18812943      -3.38685226      -5.09107399
H       -0.18029404      -1.58930206      -5.56361961
H       -1.72186852      -2.51809692      -5.71695709
15
Properties=species:S:1:pos:R:3 name=EMC mapped_smiles="[C:1]([C:2]([O:3][C:4](=[O:5])[O:6][C:7]([H:13])([H:14])[H:15])([H:11])[H:12])([H:8])([H:9])[H:10]" pbc="F F F"
C       -1.50546646       4.14920235      -4.16391754
C       -2.06579590       2.81356049      -4.37321663
O       -1.28313828       1.92682076      -3.54178238
C       -1.70476913       1.47643471      -2.34407806
O       -1.06277466       0.83352852      -1.55444336
O       -2.90038681       1.96551323      -1.91408157
C       -3.39681244       1.55187798      -0.62719727
H       -0.49954224       4.24191093      -4.62561607
H       -1.47950745       4.57579613      -3.08417892
H       -2.15032578       4.84346008      -4.70247078
H       -3.10873032       2.84336472      -3.96788979
H       -1.97702408       2.43126488      -5.41645241
H       -3.34269142       0.47049332      -0.39795303
H       -4.44518661       1.92570877      -0.58955002
H       -2.79865646       2.02967453       0.16990280
15
Properties=species:S:1:pos:R:3 name=EMC mapped_smiles="[C:1]([C:2]([O:3][C:4](=[O:5])[O:6][C:7]([H:13])([H:14])[H:15])([H:11])[H:12])([H:8])([H:9])[H:10]" pbc="F F F"
C        0.00000000       0.00000000       0.00000000
C       -0.91302490       0.86708069      -0.74861526
O       -1.56399536      -0.00632095      -1.82419777
C       -2.64451218      -0.75703812      -1.52776527
O       -3.06442070      -1.51018524      -2.38967896
O       -2.91841698      -0.75929642      -0.26818848
C       -3.96263504      -1.67422867       0.19955635
H       -0.58928299      -0.83979034       0.44410896
H        0.47256851       0.63347244       0.79363632
H        0.77144241      -0.37076950      -0.75050735
H       -1.56478882       1.38036728      -0.13903618
H       -0.34795761       1.62046432      -1.27089310
H       -4.91537476      -1.15596390      -0.00661278
H       -3.76180077      -1.79987717       1.27988243
H       -3.90676689      -2.64004517      -0.32211113
15
Properties=species:S:1:pos:R:3 name=EMC mapped_smiles="[C:1]([C:2]([O:3][C:4](=[O:5])[O:6][C:7]([H:13])([H:14])[H:15])([H:11])[H:12])([H:8])([H:9])[H:10]" pbc="F F F"
C       -1.02153587       3.89837074       1.22030640
C       -2.26424408       3.92763329       2.23181534
O       -1.76473808       3.79134941       3.63781357
C       -1.22327995       4.85098648       4.29697800
O       -0.86437607       5.95603371       3.90539551
O       -0.96476746       4.41522980       5.57811356
C       -0.59033394       5.29257965       6.66382980
H       -0.44307899       4.81920433       1.42587662
H       -1.26775169       3.87171364       0.17230988
H       -0.35797691       3.05825233       1.30814743
H       -2.87067032       4.89267540       2.31237793
H       -2.91042709       3.05551529       2.00746155
H       -0.93068695       6.23465538       6.40610123
H        0.48272324       5.30279350       6.83455276
H       -1.10225868       4.98092461       7.54769516
15
Properties=species:S:1:pos:R:3 name=EMC mapped_smiles="[C:1]([C:2]([O:3][C:4](=[O:5])[O:6][C:7]([H:13])([H:14])[H:15])([H:11])[H:12])([H:8])([H:9])[H:10]" pbc="F F F"
C        0.00000000       0.00000000       0.00000000
C        0.86396027      -1.25444221       0.06766701
O        1.04409218      -1.83436203      -1.21933746
C        0.02295685      -2.53787994      -1.82450294
O       -0.97113991      -2.97800446      -1.30430222
O        0.27251244      -2.77907753      -3.11973000
C       -0.68648720      -3.48709106      -3.97550774
H       -0.75020981      -0.26171112      -0.74884415
H        0.47429276       0.86685944      -0.39862442
H       -0.53079987       0.17453766       0.97049332
H        1.85438728      -1.04667664       0.53042793
H        0.32952118      -1.93260193       0.74231148
H       -0.27112198      -3.60633850      -4.98451233
H       -1.69103050      -2.98514938      -4.02947044
H       -0.84468269      -4.39200211      -3.48062134
15
Properties=species:S:1:pos:R:3 name=EMC mapped_smiles="[C:1]([C:2]([O:3][C:4](=[O:5])[O:6][C:7]([H:13])([H:14])[H:15])([H:11])[H:12])([H:8])([H:9])[H:10]" pbc="F F F"
C        0.00000000       0.00000000       0.00000000
C       -0.97018814       0.32203865      -1.11240768
O       -0.36240005      -0.12095070      -2.33891296
C       -0.54823875      -1.40113831      -2.76142883
O       -1.29789925      -2.26292992      -2.21990395
O        0.19114494      -1.60866928      -3.88171959
C        0.15130615      -2.94838524      -4.43914223
H        0.86172867       0.63361549      -0.03271294
H        0.33580780      -1.04032707      -0.11957550
H       -0.54458427       0.19008064       0.89790916
H       -1.89232826      -0.26272011      -0.89073181
H       -1.14733696       1.34605408      -1.21016693
H       -0.72830009      -3.01743317      -5.01930809
H        0.11532021      -3.62155914      -3.59609032
H        0.95188522      -3.16124725      -5.09163094
15
Properties=species:S:1:pos:R:3 name=EMC mapped_smiles="[C:1]([C:2]([O:3][C:4](=[O:5])[O:6][C:7]([H:13])([H:14])[H:15])([H:11])[H:12])([H:8])([H:9])[H:10]" pbc="F F F"
C       -3.97898483       3.37934113      -5.14164734
C       -3.43107986       4.69026184      -4.54346466
O       -2.05268097       4.49107933      -4.00037766
C       -1.90101624       3.90693855      -2.77318192
O       -0.89640045       3.34114456      -2.49117661
O       -3.00360870       4.13888168      -1.97430038
C       -2.82035828       4.02142143      -0.50970840
H       -3.43663788       3.23956108      -6.01497269
H       -5.04382515       3.45046425      -5.41683197
H       -3.85680580       2.51377678      -4.52249146
H       -3.30707169       5.28990936      -5.44856262
H       -4.11629295       5.22815514      -3.90257263
H       -2.10479355       4.84826469      -0.28126526
H       -2.40805435       3.06150055      -0.11196899
H       -3.77473831       4.23897934       0.04343033
