15
Properties=species:S:1:pos:R:3 name=EMC mapped_smiles="[C:1]([C:2]([O:3][C:4](=[O:5])[O:6][C:7]([H:13])([H:14])[H:15])([H:11])[H:12])([H:8])([H:9])[H:10]" pbc="F F F"
C        1.68185043      -3.87157440       7.49244690
C        1.00046158      -2.60552979       7.97511673
O        1.91219711      -1.48460007       7.91216278
C        1.94400406      -0.64519119       8.94510269
O        1.21670151      -0.63600159       9.93862915
O        2.92080498       0.23833084       8.68988800
C        3.08630753       1.27973175       9.69052124
H        1.66607285      -3.99434280       6.39816284
H        1.22165680      -4.77250671       7.88791275
H        2.77826691      -3.80686951       7.79274750
H        0.14790916      -2.30625153       7.27819443
H        0.58943558      -2.76853180       9.01057053
H        2.43182564       1.17158890      10.60837936
H        2.83114243       2.17815399       9.24792099
H        4.17068481       1.20458984       9.83756256
15
Properties=species:S:1:pos:R:3 name=EMC mapped_smiles="[C:1]([C:2]([O:3][C:4](=[O:5])[O:6][C:7]([H:13])([H:14])[H:15])([H:11])[H:12])([H:8])([H:9])[H:10]" pbc="F F F"
C        6.31715584       5.19115829       2.55550003
C        5.67221832       3.86854935       2.83685684
O        6.40047073       2.79461670       2.14590073
C        6.15271950       2.57572556       0.81624603
O        5.31502914       3.09986877       0.15760422
O        7.00585175       1.59608841       0.52419281
C        7.15195656       1.27129364      -0.90155411
H        6.45998001       5.27595520       1.49183273
H        7.20829582       5.26187897       3.12458038
H        5.81188583       6.03792191       3.01845932
H        5.72312546       3.62939072       3.95186996
H        4.53545761       3.78732681       2.61899948
H        7.52445602       0.22533798      -0.91164398
H        7.96097946       1.85517120      -1.37432098
H        6.22694969       1.38964462      -1.53273392
15
Properties=species:S:1:pos:R:3 name=EMC mapped_smiles="[C:1]([C:2]([O:3][C:4](=[O:5])[O:6][C:7]([H:13])([H:14])[H:15])([H:11])[H:12])([H:8])([H:9])[H:10]" pbc="F F F"
C       -2.97291374       5.75650406      -2.20877075
C       -2.04693985       5.31040192      -1.09047127
O       -2.34488487       6.15679932       0.10343361
C       -1.57209587       5.96316528       1.20853615
O       -0.49217224       5.39741516       1.16607475
O       -2.20573044       6.59641647       2.26716995
C       -1.32631493       6.70733261       3.47196960
H       -2.97130966       6.81611633      -2.23976898
H       -4.00798035       5.42246246      -2.14979935
H       -2.54405975       5.43776321      -3.12477493
H       -2.33245850       4.33588028      -0.72309875
H       -0.99939156       5.40008163      -1.31412697
H       -0.39648628       6.16787720       3.36491394
H       -1.86379814       6.22627640       4.33710480
H       -1.22049332       7.76855469       3.66968536
15
Properties=species:S:1:pos:R:3 name=EMC mapped_smiles="[C:1]([C:2]([O:3][C:4](=[O:5])[O:6][C:7]([H:13])([H:14])[H:15])([H:11])[H:12])([H:8])([H:9])[H:10]" pbc="F F F"
C       -8.95319366       0.76067352      -4.59544373
C       -7.47109985       0.32324600      -4.41424561
O       -7.51548004      -1.10545349      -4.05072021
C       -6.35156250      -1.64252472      -3.48922729
O       -5.22142029      -1.10045433      -3.55685425
O       -6.65522003      -2.87487411      -2.95133972
C       -5.71716309      -3.66717339      -2.29655075
H       -9.01805115       1.83715057      -4.61775208
H       -9.41986847       0.31123352      -3.73893738
H       -9.37818146       0.33610916      -5.49715424
H       -6.87754822       0.29597855      -5.33282471
H       -6.86684418       0.76301956      -3.60246277
H       -5.78816986      -3.34611511      -1.29772568
H       -4.69658661      -3.50184441      -2.62423325
H       -5.98760986      -4.71421432      -2.49498367
15
Properties=species:S:1:pos:R:3 name=EMC mapped_smiles="[C:1]([C:2]([O:3][C:4](=[O:5])[O:6][C:7]([H:13])([H:14])[H:15])([H:11])[H:12])([H:8])([H:9])[H:10]" pbc="F F F"
C       -1.48037338      -0.93882179      -3.27066994
C       -0.38738251      -0.16673279      -4.00828362
O        0.34936905      -1.13613129      -4.85163116
C        1.45800400      -1.73109627      -4.53764725
O        2.02856827      -1.75962067      -3.46374893
O        1.84056854      -2.32572556      -5.67620468
C        3.14776230      -3.05305290      -5.57625008
H       -1.12256813      -1.71478081      -2.59373093
H       -2.10718727      -1.45879555      -3.96689796
H       -2.02110100      -0.29773903      -2.59106827
H       -0.86141968       0.57053757      -4.69673920
H        0.37301636       0.34146881      -3.38874245
H        3.12490845      -3.66947174      -4.63185501
H        3.87989044      -2.27152061      -5.49216652
H        3.17710114      -3.70717621      -6.49905586
15
Properties=species:S:1:pos:R:3 name=EMC mapped_smiles="[C:1]([C:2]([O:3][C:4](=[O:5])[O:6][C:7]([H:13])([H:14])[H:15])([H:11])[H:12])([H:8])([H:9])[H:10]" pbc="F F F"
C        0.01489639       3.89237595      -3.39492416
C        1.22564316       4.80499268      -3.62277222
O        1.59820175       4.81496811      -4.98069382
C        2.25639725       3.77648926      -5.47467041
O        2.61432076       2.80741882      -4.74512100
O        2.59637451       3.96210480      -6.68375206
C        3.63882065       3.04650116      -7.18128395
H        0.25865555       2.86267853      -3.76971436
H       -0.85552216       4.30177307      -3.89638519
H       -0.24032211       3.65449524      -2.31688309
H        1.11414337       5.83934402      -3.29674149
H        2.06405830       4.36859131      -3.12232208
H        3.17201614       2.09204483      -7.31750870
H        4.50459099       3.10665512      -6.51010132
H        3.92779541       3.33727264      -8.16201210
15
Properties=species:S:1:pos:R:3 name=EMC mapped_smiles="[C:1]([C:2]([O:3][C:4](=[O:5])[O:6][C:7]([H:13])([H:14])[H:15])([H:11])[H:12])([H:8])([H:9])[H:10]" pbc="F F F"
C        2.28268623      -1.52858353       4.74686813
C        3.50853920      -0.70838547       4.24440765
O        4.79030418      -1.39762878       4.56248093
C        5.53055954      -1.73859024       3.48441696
O        5.18264961      -1.72649002       2.27545547
O        6.75100327      -2.09665680       3.96889114
C        7.84951782      -2.22837067       3.05204010
H        2.37507439      -2.60968781       4.42798233
H        1.26607895      -1.06330872       4.51342010
H        2.36976051      -1.74115372       5.91480255
H        3.48751068      -0.50900650       3.14820480
H        3.60141373       0.29100800       4.72967911
H        7.51649666      -3.12199020       2.48556900
H        8.74709320      -2.63977051       3.50650787
H        8.01024628      -1.32972336       2.38059616
15
Properties=species:S:1:pos:R:3 name=EMC mapped_smiles="[C:1]([C:2]([O:3][C:4](=[O:5])[O:6][C:7]([H:13])([H:14])[H:15])([H:11])[H:12])([H:8])([H:9])[H:10]" pbc="F F F"
C        2.18822861      -8.90790176       0.11257553
C        1.59786987      -8.61506271      -1.28848076
O        0.10307693      -8.74949074      -1.28058815
C       -0.60612488      -9.90554047      -1.19475174
O       -0.16553116     -11.06722832      -1.11865234
O       -1.87086105      -9.53938484      -0.91330338
C       -2.78817368     -10.67276955      -0.62350464
H        1.92912674      -9.96464157       0.38287354
H        1.96212006      -8.15640831       0.93285751
H        3.25341797      -8.77731705       0.03339195
H        1.86581421      -7.57159996      -1.51522827
H        1.98495865      -9.29172897      -2.13115883
H       -2.95447540     -11.23227882      -1.49925423
H       -3.73077011     -10.33217430      -0.26299667
H       -2.29324341     -11.38254547       0.03436279
15
Properties=species:S:1:pos:R:3 name=EMC mapped_smiles="[C:1]([C:2]([O:3][C:4](=[O:5])[O:6][C:7]([H:13])([H:14])[H:15])([H:11])[H:12])([H:8])([H:9])[H:10]" pbc="F F F"
C        4.25040436      -3.20113754      -5.75337219
C        3.12659073      -3.30327606      -4.73561096
O        3.60538101      -3.30715561      -3.32010269
C        3.61378479      -2.09488106      -2.76099396
O        3.36779404      -1.02383614      -3.32096100
O        3.87480927      -2.25688934      -1.42765808
C        4.01233673      -1.05283356      -0.55561829
H        4.82064056      -4.15579033      -5.67390442
H        4.91668701      -2.39600563      -5.47498322
H        3.86296844      -3.11619377      -6.80483246
H        2.38123322      -2.54785919      -4.77256393
H        2.69292450      -4.27849579      -4.77795792
H        4.31210327      -1.20333099       0.49947357
H        2.91961670      -0.83564186      -0.49188614
H        4.58027649      -0.25616646      -1.06406403
15
Properties=species:S:1:pos:R:3 name=EMC mapped_smiles="[C:1]([C:2]([O:3][C:4](=[O:5])[O:6][C:7]([H:13])([H:14])[H:15])([H:11])[H:12])([H:8])([H:9])[H:10]" pbc="F F F"
C      -10.36344910       1.30724907       0.56358147
C       -8.97277832       0.67932320       0.72880554
O       -8.11840820       1.26970482       1.77396202
C       -6.76650238       1.05708504       1.55030632
O       -6.32446671       0.44183540       0.57906342
O       -6.18568802       1.54210854       2.68982124
C       -4.72184372       1.69328499       2.82424164
H      -10.78431702       1.60621834       1.49476051
H      -11.03220749       0.61660194       0.02777481
H      -10.26541519       2.24974632       0.05888939
H       -9.08273697      -0.29826927       1.18372917
H       -8.52638245       0.56128883      -0.21934700
H       -4.20578384       1.40002251       1.83469009
H       -4.26344299       1.23162651       3.68352890
H       -4.57642365       2.77635765       3.06575394
15
Properties=species:S:1:pos:R:3 name=EMC mapped_smiles="[C:1]([C:2]([O:3][C:4](=[O:5])[O:6][C:7]([H:13])([H:14])[H:15])([H:11])[H:12])([H:8])([H:9])[H:10]" pbc="F F F"
C        3.69147491      -0.00766373       3.98856735
C        2.42578316      -0.21982956       3.27306366
O        1.26428223      -0.59547043       3.99613762
C        0.07663155      -0.67001724       3.38128471
O       -0.16408157      -0.54130363       2.17832565
O       -0.82296371      -0.92925644       4.39473343
C       -2.16636658      -1.26626396       4.13252831
H        3.45367432       0.16115379       5.03186035
H        4.28857803       0.79992294       3.57988358
H        4.26920700      -0.88791275       3.92396927
H        2.08064651       0.69851875       2.80717850
H        2.58087349      -0.91823387       2.47528648
H       -2.34870148      -1.68399048       3.11946678
H       -2.83948898      -0.38103676       4.29413605
H       -2.42364883      -2.01338959       4.88991737
15
Properties=species:S:1:pos:R:3 name=EMC mapped_smiles="[C:1]([C:2]([O:3][C:4](=[O:5])[O:6][C:7]([H:13])([H:14])[H:15])([H:11])[H:12])([H:8])([H:9])[H:10]" pbc="F F F"
C        2.10785294      -5.20420456      -4.77171707
C        2.60036087      -6.12493896      -5.92666626
O        1.48572540      -6.28240013      -6.94500351
C        1.75338745      -6.94619179      -8.03893757
O        2.79228592      -7.51511002      -8.25053978
O        0.64759827      -6.77565956      -8.88445759
C        0.82807922      -7.40642738     -10.25489426
H        1.40307999      -5.70706367      -4.07452774
H        1.57095718      -4.32226372      -5.18887711
H        2.88617706      -4.92444229      -4.08739471
H        3.45732880      -5.77066994      -6.45227242
H        2.79521942      -7.07757950      -5.51759148
H        1.79643250      -7.21557045     -10.75837517
H        0.17139053      -7.00625610     -11.07638359
H        0.40285492      -8.44842911     -10.24284935
15
Properties=species:S:1:pos:R:3 name=EMC mapped_smiles="[C:1]([C:2]([O:3][C:4](=[O:5])[O:6][C:7]([H:13])([H:14])[H:15])([H:11])[H:12])([H:8])([H:9])[H:10]" pbc="F F F"
C       -4.28384018       0.81675720       4.81193542
C       -4.51418114       2.25635147       5.20211029
O       -5.92542839       2.71056747       5.03404999
C       -6.31618118       2.94866180       3.76931763
O       -5.71477699       2.68718719       2.76026154
O       -7.56506920       3.41718864       3.94843292
C       -8.23259544       4.13735390       2.85644150
H       -3.42989540       0.35118484       5.33566666
H       -4.13609886       0.80591011       3.73514938
H       -5.14922523       0.12260056       5.07899475
H       -4.35909843       2.43543243       6.25122070
H       -3.88104248       2.94454765       4.67941284
H       -9.16567230       3.61044884       2.74665833
H       -7.70747948       4.19454002       1.85410690
H       -8.49434662       5.15164185       3.17622757
15
Properties=species:S:1:pos:R:3 name=EMC mapped_smiles="[C:1]([C:2]([O:3][C:4](=[O:5])[O:6][C:7]([H:13])([H:14])[H:15])([H:11])[H:12])([H:8])([H:9])[H:10]" pbc="F F F"
C        2.14461136      -5.97093201      -7.06644058
C        1.45953369      -7.30722809      -6.86607361
O        1.24745941      -7.69154549      -5.50013733
C        0.26864052      -8.55180550      -5.26251602
O       -0.40888023      -9.09491539      -6.09167099
O        0.23250771      -8.70564461      -3.87847137
C       -0.67484093      -9.79989624      -3.57094193
H        3.21997261      -6.13887787      -7.05394745
H        1.89529419      -5.24761391      -6.26784134
H        1.79838562      -5.53312302      -8.03091049
H        0.49774933      -7.21240997      -7.26773834
H        1.87093353      -8.18624306      -7.34819031
H       -1.63009834      -9.67297840      -4.08132553
H       -0.85290718      -9.84812355      -2.53497314
H       -0.23480988     -10.76836395      -3.88750839
15
Properties=species:S:1:pos:R:3 name=EMC mapped_smiles="[C:1]([C:2]([O:3][C:4](=[O:5])[O:6][C:7]([H:13])([H:14])[H:15])([H:11])[H:12])([H:8])([H:9])[H:10]" pbc="F F F"
C      -10.64597130      -1.08537292      -2.25080109
C       -9.41739845      -1.97666931      -2.12640381
O       -8.33139229      -1.13322830      -2.45051956
C       -7.09134293      -1.53182983      -2.08003998
O       -6.67852020      -2.66066360      -1.81674957
O       -6.28436089      -0.43338013      -2.24520874
C       -4.89676476      -0.46566010      -1.87208557
H      -11.54504013      -1.60237503      -1.90230942
H      -10.78927231      -0.73344040      -3.30249786
H      -10.50815773      -0.25861168      -1.54960632
H       -9.30401421      -2.36403847      -1.07514954
H       -9.47624588      -2.81730652      -2.84994888
H       -4.43009186       0.54256630      -1.78509521
H       -4.47214890      -1.05776787      -2.62976837
H       -4.86316109      -0.96734619      -0.90402222
15
Properties=species:S:1:pos:R:3 name=EMC mapped_smiles="[C:1]([C:2]([O:3][C:4](=[O:5])[O:6][C:7]([H:13])([H:14])[H:15])([H:11])[H:12])([H:8])([H:9])[H:10]" pbc="F F F"
C        1.24994087      -1.49066734       6.72032166
C        1.94211960      -2.56592751       6.02235413
O        3.26121330      -2.24521828       5.73328400
C        3.62450790      -1.71354866       4.55577850
O        2.88183594      -1.21432686       3.71257401
O        4.94304466      -1.64489555       4.41570473
C        5.37689590      -0.90403175       3.15874100
H        0.23831940      -1.72873116       7.07485199
H        1.17789078      -0.52407265       6.14295959
H        1.84565163      -1.29747581       7.66143608
H        2.12825012      -3.39174461       6.66653824
H        1.50625801      -2.83056450       5.08824921
H        5.10893440      -1.59079170       2.34056473
H        6.48631668      -0.70946693       3.13891792
H        4.80968285       0.03315544       3.17975426
15
Properties=species:S:1:pos:R:3 name=EMC mapped_smiles="[C:1]([C:2]([O:3][C:4](=[O:5])[O:6][C:7]([H:13])([H:14])[H:15])([H:11])[H:12])([H:8])([H:9])[H:10]" pbc="F F F"
C        7.03292656      -3.25695038       4.52833939
C        6.53570175      -2.79792786       3.22195435
O        5.83652115      -3.84300995       2.52686691
C        6.58635330      -4.78812408       1.93791962
O        7.75043106      -5.04584503       2.09733200
O        5.74588394      -5.51252747       1.10009956
C        6.38674545      -6.39038086       0.13679123
H        7.58732414      -2.49707794       5.00041389
H        7.59078979      -4.19400024       4.37147141
H        6.17935181      -3.46733856       5.20090103
H        5.80490112      -2.01882935       3.31449509
H        7.31455231      -2.44665527       2.54799652
H        7.20166397      -7.01932526       0.55854416
H        6.85428619      -5.80298615      -0.66281891
H        5.60087967      -6.96009827      -0.36792564
15
Properties=species:S:1:pos:R:3 name=EMC mapped_smiles="[C:1]([C:2]([O:3][C:4](=[O:5])[O:6][C:7]([H:13])([H:14])[H:15])([H:11])[H:12])([H:8])([H:9])[H:10]" pbc="F F F"
C       -1.30520821       6.59333420       5.06559181
C       -1.69900131       5.27590942       5.67525291
O       -1.13965034       5.10296249       6.99835396
C       -1.25235748       3.83837128       7.53969193
O       -1.50458908       2.94284058       6.76358223
O       -1.15879059       3.82563400       8.89315796
C       -1.47404099       2.60704041       9.57254791
H       -1.56295776       7.43846130       5.72332191
H       -1.90327644       6.67419815       4.11664391
H       -0.22627831       6.58315277       4.90248489
H       -2.80801773       5.27052307       5.76731491
H       -1.46852684       4.46416855       4.97572327
H       -0.73041534       1.88588333       9.26448059
H       -2.47218704       2.26958466       9.29232025
H       -1.38477516       2.76002884      10.65423203
15
Properties=species:S:1:pos:R:3 name=EMC mapped_smiles="[C:1]([C:2]([O:3][C:4](=[O:5])[O:6][C:7]([H:13])([H:14])[H:15])([H:11])[H:12])([H:8])([H:9])[H:10]" pbc="F F F"
C       -7.82143784      -1.87532806       5.73086929
C       -6.37732887      -1.62400818       5.61135864
O       -5.60382271      -2.86314583       5.82092667
C       -4.66283035      -3.27640915       4.92501068
O       -4.40336227      -2.68836594       3.85189819
O       -4.06636047      -4.39737511       5.30612946
C       -2.98085022      -4.88213539       4.42758942
H       -8.42127609      -0.92115402       5.73617172
H       -8.15880299      -2.43977165       6.59790802
H       -8.10629940      -2.48182869       4.83663940
H       -6.08561325      -1.11647415       4.65853882
H       -6.08656311      -0.91900253       6.43671036
H       -2.21638107      -4.10499001       4.61823654
H       -3.32317734      -4.81993675       3.41576004
H       -2.65401077      -5.85636520       4.69538116
15
Properties=species:S:1:pos:R:3 name=EMC mapped_smiles="[C:1]([C:2]([O:3][C:4](=[O:5])[O:6][C:7]([H:13])([H:14])[H:15])([H:11])[H:12])([H:8])([H:9])[H:10]" pbc="F F F"
C        8.19378662       0.38265038       6.17382050
C        7.41161537       1.39330864       5.33897018
O        5.95578384       1.25110626       5.64716721
C        5.06929207       0.82139969       4.62887955
O        5.32847595       0.87498665       3.44175339
O        3.99199104       0.38718224       5.26839447
C        2.88072205      -0.01429749       4.44266510
H        7.95440102      -0.66056252       5.99466705
H        7.96388435       0.62655830       7.18992996
H        9.27505493       0.55543327       6.05170822
H        7.63114738       2.43316460       5.57614899
H        7.52850914       1.10741043       4.28182602
H        3.37303543      -0.82010078       3.80665588
H        2.54465675       0.89567947       3.91142273
H        2.04216576      -0.42564011       5.00074005
15
Properties=species:S:1:pos:R:3 name=EMC mapped_smiles="[C:1]([C:2]([O:3][C:4](=[O:5])[O:6][C:7]([H:13])([H:14])[H:15])([H:11])[H:12])([H:8])([H:9])[H:10]" pbc="F F F"
C       -0.72525406      -1.26081467       6.02109528
C       -0.58358383      -0.59517288       4.70647812
O       -1.28908539      -1.34601212       3.62884140
C       -2.62960052      -1.34469223       3.55810165
O       -3.27709198      -1.92663574       2.69625854
O       -3.18778229      -0.67029953       4.57574844
C       -4.57226562      -0.80908203       4.77512741
H       -0.24819565      -0.65899277       6.86548615
H       -0.31087112      -2.25542068       5.94001389
H       -1.73844910      -1.36674118       6.29110336
H       -1.06998825       0.39944839       4.76295853
H        0.44272232      -0.41600418       4.37183762
H       -4.69638062      -1.63557053       5.50132751
H       -5.02865601      -1.08973694       3.82355499
H       -4.91429138       0.13582230       5.26768112
15
Properties=species:S:1:pos:R:3 name=EMC mapped_smiles="[C:1]([C:2]([O:3][C:4](=[O:5])[O:6][C:7]([H:13])([H:14])[H:15])([H:11])[H:12])([H:8])([H:9])[H:10]" pbc="F F F"
C        4.77321434       1.74147034       0.55466843
C        3.67568016       1.26200485      -0.38645935
O        3.71729469      -0.15253448      -0.59136963
C        3.46751595      -0.65315628      -1.83126831
O        3.09178162      -0.08232117      -2.82848358
O        3.87270546      -1.97437668      -1.82258606
C        3.79042244      -2.75150681      -3.01876831
H        4.93459511       1.19256210       1.50554276
H        4.39248085       2.71709061       0.92795563
H        5.74932289       1.85987091       0.04652023
H        2.76249123       1.44863129       0.08885574
H        3.72841072       1.74959564      -1.34039307
H        3.92603874      -3.76464272      -2.71012878
H        4.46791267      -2.37451363      -3.75415039
H        2.82899857      -2.78749466      -3.47688293
15
Properties=species:S:1:pos:R:3 name=EMC mapped_smiles="[C:1]([C:2]([O:3][C:4](=[O:5])[O:6][C:7]([H:13])([H:14])[H:15])([H:11])[H:12])([H:8])([H:9])[H:10]" pbc="F F F"
C        3.02036285      -5.86255646       0.32194901
C        3.12624741      -6.11985016       1.80962944
O        2.03025055      -7.14061356       2.19536591
C        0.75399780      -6.74505615       2.14904404
O        0.51652908      -5.60536957       2.27357292
O       -0.12170410      -7.72876740       1.96925735
C       -1.55500031      -7.47853851       1.66395569
H        3.39404678      -4.87743378       0.03580284
H        1.94365692      -5.81163025      -0.01179886
H        3.45009995      -6.72624588      -0.21924210
H        4.06344604      -6.59188080       2.08963966
H        3.08307266      -5.29647064       2.47385406
H       -1.72531509      -8.21646500       0.87207794
H       -1.78239822      -6.49372101       1.23767281
H       -2.15103149      -7.67553711       2.54954147
15
Properties=species:S:1:pos:R:3 name=EMC mapped_smiles="[C:1]([C:2]([O:3][C:4](=[O:5])[O:6][C:7]([H:13])([H:14])[H:15])([H:11])[H:12])([H:8])([H:9])[H:10]" pbc="F F F"
C        6.29521751      -4.16518211      -0.69982719
C        5.06734657      -3.81145859      -1.49765778
O        5.41741371      -3.08542252      -2.68759918
C        5.28040314      -1.73681831      -2.82117271
O        5.06990623      -0.91542816      -1.95855331
O        5.65194702      -1.46807480      -4.20624733
C        5.53753281      -0.09244156      -4.64382362
H        6.99687958      -3.31839752      -0.70452690
H        6.84478760      -5.06925964      -1.07836151
H        5.95905304      -4.31277084       0.33324051
H        4.55076790      -4.68588638      -1.91801643
H        4.30385017      -3.27557945      -0.89618492
H        4.55377769       0.37052727      -4.40081787
H        5.64651108       0.07619858      -5.70684052
H        6.28657913       0.46402550      -4.04641724
15
Properties=species:S:1:pos:R:3 name=EMC mapped_smiles="[C:1]([C:2]([O:3][C:4](=[O:5])[O:6][C:7]([H:13])([H:14])[H:15])([H:11])[H:12])([H:8])([H:9])[H:10]" pbc="F F F"
C       -3.05315590      -1.46867752       4.79765892
C       -4.04397774      -0.83069229       3.81038666
O       -3.56801033      -1.15285110       2.44435310
C       -4.28133583      -0.48341370       1.46400452
O       -4.02059364      -0.47394562       0.30217361
O       -5.36097145       0.06205750       1.97957230
C       -5.96559715       1.09623337       1.18430519
H       -3.05146980      -2.55414200       4.60450554
H       -3.13058281      -1.22103119       5.81151772
H       -2.00642967      -1.09078217       4.53172493
H       -5.02120781      -1.18192673       3.88269234
H       -3.97907829       0.26814651       3.90890312
H       -6.68769264       1.71182251       1.74132919
H       -6.43924904       0.59522629       0.38325310
H       -5.20836449       1.79451370       0.87104607
15
Properties=species:S:1:pos:R:3 name=EMC mapped_smiles="[C:1]([C:2]([O:3][C:4](=[O:5])[O:6][C:7]([H:13])([H:14])[H:15])([H:11])[H:12])([H:8])([H:9])[H:10]" pbc="F F F"
C       -6.20197678       0.02362061      -1.33794022
C       -5.79023743      -0.03205490      -2.76394653
O       -6.44210052       1.06960297      -3.36999130
C       -6.30435944       1.17400360      -4.71883774
O       -5.93878937       0.25091934      -5.39050674
O       -6.78966522       2.38063431      -4.99357224
C       -7.19751358       2.56619263      -6.42665100
H       -5.34954071      -0.23313522      -0.70864487
H       -6.99671173      -0.71705627      -1.16560745
H       -6.51698303       0.99298096      -0.99274063
H       -4.73406982       0.11114120      -2.95123291
H       -6.15351868      -1.00907898      -3.22722626
H       -7.20934677       1.59743118      -7.03001404
H       -6.49314880       3.24549484      -6.96868134
H       -8.20036697       2.94264603      -6.39196396
15
Properties=species:S:1:pos:R:3 name=EMC mapped_smiles="[C:1]([C:2]([O:3][C:4](=[O:5])[O:6][C:7]([H:13])([H:14])[H:15])([H:11])[H:12])([H:8])([H:9])[H:10]" pbc="F F F"
C       -3.75551033      -4.46504211       6.10318756
C       -3.14075851      -3.79157257       4.85678101
O       -1.73794174      -4.23310471       4.56103134
C       -0.61514282      -3.49554443       4.96123505
O       -0.59793854      -2.37285233       5.35330963
O        0.55839348      -4.12354660       4.70642090
C        1.81386185      -3.59401321       5.30541611
H       -4.67824364      -4.00452423       6.38026047
H       -3.15804291      -4.22064590       6.95729446
H       -3.86644745      -5.56693649       6.04051208
H       -3.66609573      -4.19087601       3.93310165
H       -3.07208443      -2.72179031       4.84193420
H        1.77676582      -3.71229172       6.36745071
H        1.82732391      -2.51984024       5.14374542
H        2.68543816      -4.07167053       4.82555008
15
Properties=species:S:1:pos:R:3 name=EMC mapped_smiles="[C:1]([C:2]([O:3][C:4](=[O:5])[O:6][C:7]([H:13])([H:14])[H:15])([H:11])[H:12])([H:8])([H:9])[H:10]" pbc="F F F"
C        0.00000000       0.00000000       0.00000000
C       -1.04201698      -1.06179428      -0.08837509
O       -1.59798050      -1.17613220      -1.40628624
C       -2.67759895      -1.99657059      -1.63429832
O       -3.20568466      -2.12609863      -2.70518112
O       -3.02715302      -2.72908783      -0.55854797
C       -4.32578087      -3.41695404      -0.61300659
H        0.66395569      -0.12364578       0.89394760
H       -0.44453812       0.99551773       0.02891350
H        0.72664452      -0.06224823      -0.76156616
H       -0.66501236      -2.08810425       0.31827164
H       -1.88085175      -0.73424911       0.52251053
H       -4.65261841      -3.68717957       0.40767288
H       -4.28252792      -4.28874207      -1.25492668
H       -5.00982857      -2.67459106      -1.01828575
15
Properties=species:S:1:pos:R:3 name=EMC mapped_smiles="[C:1]([C:2]([O:3][C:4](=[O:5])[O:6][C:7]([H:13])([H:14])[H:15])([H:11])[H:12])([H:8])([H:9])[H:10]" pbc="F F F"
C       -2.47568130       6.19994354      -0.64803696
C       -3.79745483       5.71488953      -0.85722733
O       -4.30607986       6.63522720      -1.87392426
C       -5.50352478       6.39300919      -2.42461014
O       -6.12281036       5.33308411      -2.51900101
O       -5.92787933       7.54661942      -2.97204208
C       -7.19052505       7.59167862      -3.62380981
H       -1.93310928       5.51889801       0.02450562
H       -2.56056976       7.21496201      -0.18441391
H       -1.89334106       6.34122086      -1.51183701
H       -3.74821472       4.62130356      -1.21348190
H       -4.38741684       5.61149979       0.07243729
H       -7.83707047       7.02460480      -3.12057114
H       -7.00373077       7.09446716      -4.66608810
H       -7.40135574       8.65803528      -3.72548294
15
Properties=species:S:1:pos:R:3 name=EMC mapped_smiles="[C:1]([C:2]([O:3][C:4](=[O:5])[O:6][C:7]([H:13])([H:14])[H:15])([H:11])[H:12])([H:8])([H:9])[H:10]" pbc="F F F"
C       -2.60461044      -2.46409798       5.73931885
C       -2.20132446      -2.56644821       4.26834869
O       -3.32447433      -2.94689560       3.39304543
C       -3.06684113      -3.09905052       2.05169678
O       -1.98506165      -3.06525421       1.48117638
O       -4.30061340      -3.20689964       1.43467712
C       -4.17441940      -3.37525558       0.01504517
H       -1.73437500      -2.07785034       6.26219940
H       -2.73839569      -3.41241074       6.18463898
H       -3.43854523      -1.79800606       5.85169601
H       -1.72794342      -1.58734512       3.95274162
H       -1.44756317      -3.36524963       4.17397308
H       -3.62879944      -2.54466057      -0.49492264
H       -5.19353104      -3.33816147      -0.43956375
H       -3.69364166      -4.33112907      -0.16000748
15
Properties=species:S:1:pos:R:3 name=EMC mapped_smiles="[C:1]([C:2]([O:3][C:4](=[O:5])[O:6][C:7]([H:13])([H:14])[H:15])([H:11])[H:12])([H:8])([H:9])[H:10]" pbc="F F F"
C       -4.12968445       2.87514496      -5.41973114
C       -4.47551537       4.27902603      -5.35261154
O       -5.48295021       4.43088150      -4.26077271
C       -4.96598053       4.41021729      -2.99554443
O       -3.94608879       3.83852386      -2.64467239
O       -5.73694611       5.24428177      -2.17692566
C       -5.34320068       5.21905518      -0.75811386
H       -4.89633751       2.27581406      -6.02427673
H       -4.04775429       2.50496674      -4.40847397
H       -3.31241417       2.65982437      -6.03243256
H       -3.75385666       4.99814987      -5.13673019
H       -4.90775871       4.54858017      -6.35815811
H       -5.14591026       4.15811539      -0.41604996
H       -6.02719307       5.83237457      -0.17494202
H       -4.42242813       5.85103989      -0.77639389
15
Properties=species:S:1:pos:R:3 name=EMC mapped_smiles="[C:1]([C:2]([O:3][C:4](=[O:5])[O:6][C:7]([H:13])([H:14])[H:15])([H:11])[H:12])([H:8])([H:9])[H:10]" pbc="F F F"
C        0.26622009      -7.37109566       6.70486832
C        0.14622116      -6.94219589       5.26145554
O        1.40195465      -6.44689560       4.79718781
C        1.89092255      -5.25908279       5.24123001
O        1.20525742      -4.39537430       5.77964401
O        3.25761414      -5.23900986       4.97210693
C        4.05495834      -4.16259003       5.64006042
H        0.84755325      -8.26535702       6.80059052
H       -0.76125336      -7.48198128       7.14532089
H        0.61999130      -6.60460472       7.36520767
H       -0.18255615      -7.70798874       4.60229492
H       -0.60002899      -6.09518242       5.17617798
H        4.26813889      -3.30936432       4.99748611
H        4.99527359      -4.63510895       5.97764206
H        3.47001266      -3.85919571       6.43629074
15
Properties=species:S:1:pos:R:3 name=EMC mapped_smiles="[C:1]([C:2]([O:3][C:4](=[O:5])[O:6][C:7]([H:13])([H:14])[H:15])([H:11])[H:12])([H:8])([H:9])[H:10]" pbc="F F F"
C        5.99609375       6.24391174       2.38216209
C        5.77379990       4.94503021       3.00793648
O        6.69803238       4.74969482       4.13190651
C        6.39755249       3.59516525       4.87064362
O        5.40767288       2.80826187       4.76044655
O        7.35553741       3.46058655       5.74781990
C        7.33178329       2.39586639       6.72006989
H        7.01075745       6.52930832       2.52545547
H        5.31192780       6.99158478       2.84462738
H        5.73830795       6.15382767       1.30658913
H        4.78543854       4.72605133       3.44392776
H        6.05396652       4.19549561       2.30996895
H        8.34446716       2.37979507       7.12619781
H        7.11550140       1.51670837       6.16206169
H        6.44041824       2.46881104       7.37126160
15
Properties=species:S:1:pos:R:3 name=EMC mapped_smiles="[C:1]([C:2]([O:3][C:4](=[O:5])[O:6][C:7]([H:13])([H:14])[H:15])([H:11])[H:12])([H:8])([H:9])[H:10]" pbc="F F F"
C        2.61148834      -6.21400642      -4.92616844
C        3.17871857      -6.53382492      -3.55073738
O        2.36065102      -5.95506477      -2.46452141
C        2.61479950      -4.64380836      -2.09272575
O        3.27800560      -3.74585533      -2.59104156
O        1.70845222      -4.50266075      -1.11383057
C        1.67998123      -3.38727379      -0.28577423
H        2.61594009      -5.16579819      -5.20350266
H        1.63425446      -6.60228157      -5.02065849
H        3.25323105      -6.79703712      -5.66240692
H        3.18443871      -7.57544136      -3.37602425
H        4.17414856      -6.15133476      -3.51234245
H        2.25053406      -3.54622078       0.63882637
H        0.64378738      -3.22924232       0.00392914
H        2.12182617      -2.48648834      -0.76875305
15
Properties=species:S:1:pos:R:3 name=EMC mapped_smiles="[C:1]([C:2]([O:3][C:4](=[O:5])[O:6][C:7]([H:13])([H:14])[H:15])([H:11])[H:12])([H:8])([H:9])[H:10]" pbc="F F F"
C        1.30299377       3.48750305      -0.46506882
C        0.77901077       4.08775139       0.85403824
O        1.02851105       3.17449760       1.99415207
C        0.21700668       2.21877670       2.17331314
O       -0.51439667       1.73928452       1.36320114
O        0.47601700       1.64425850       3.39706039
C       -0.41241837       0.53473854       3.77137756
H        0.80301285       2.52167511      -0.66634750
H        2.37185287       3.32226372      -0.31402588
H        1.23913574       4.17825127      -1.32925034
H        1.25456619       5.03188133       1.15032578
H       -0.24878693       4.45920372       0.70592880
H       -0.28416061       0.30854416       4.81645584
H       -0.20448685      -0.38148689       3.21378326
H       -1.41883850       0.82643127       3.50632858
15
Properties=species:S:1:pos:R:3 name=EMC mapped_smiles="[C:1]([C:2]([O:3][C:4](=[O:5])[O:6][C:7]([H:13])([H:14])[H:15])([H:11])[H:12])([H:8])([H:9])[H:10]" pbc="F F F"
C       -7.42999649      -4.88300323      -8.45802498
C       -7.12328911      -3.60116577      -7.72775459
O       -6.56900215      -3.90670776      -6.42646027
C       -6.48156548      -2.91442871      -5.57537842
O       -6.54901123      -1.71479034      -5.94763374
O       -6.40869713      -3.33695984      -4.30992317
C       -6.38137627      -2.40881348      -3.21274567
H       -7.75588989      -4.64920044      -9.46308041
H       -8.23164272      -5.35409546      -8.01959229
H       -6.57836914      -5.61357117      -8.51603317
H       -6.49892044      -2.95278931      -8.28300476
H       -8.03922272      -3.14464569      -7.55101204
H       -5.72686768      -3.00108337      -2.49148560
H       -7.32761192      -2.29806519      -2.73786736
H       -5.95163536      -1.41512680      -3.54180145
15
Properties=species:S:1:pos:R:3 name=EMC mapped_smiles="[C:1]([C:2]([O:3][C:4](=[O:5])[O:6][C:7]([H:13])([H:14])[H:15])([H:11])[H:12])([H:8])([H:9])[H:10]" pbc="F F F"
C        1.71633720      -1.81203651       7.18530655
C        2.36749268      -2.23290443       5.93821335
O        1.51004982      -3.08118439       5.15903091
C        0.52782440      -2.50594330       4.45842934
O        0.27074623      -1.31425095       4.50623703
O       -0.11813927      -3.54846191       3.86591339
C       -1.43992805      -3.23937988       3.32914734
H        0.64895248      -1.48524857       6.97467041
H        2.17333031      -0.95278931       7.71178055
H        1.51197243      -2.53859520       7.94672775
H        2.64239311      -1.39424896       5.32231522
H        3.27038765      -2.83522797       6.17427444
H       -1.35297966      -2.79010963       2.32052994
H       -1.93997192      -2.52721405       4.02703667
H       -1.96717453      -4.16135597       3.21083450
15
Properties=species:S:1:pos:R:3 name=EMC mapped_smiles="[C:1]([C:2]([O:3][C:4](=[O:5])[O:6][C:7]([H:13])([H:14])[H:15])([H:11])[H:12])([H:8])([H:9])[H:10]" pbc="F F F"
C       -1.91411972      -2.74031639       2.56525421
C       -3.28069878      -3.19818687       3.18916321
O       -3.82547188      -4.38915443       2.61097527
C       -3.97292137      -4.38844109       1.31041908
O       -3.91976547      -3.42149544       0.54491425
O       -4.14782906      -5.64101028       0.89148903
C       -4.24041557      -6.01326370      -0.60367775
H       -1.11108780      -3.53703690       2.69406128
H       -1.55428696      -1.85247231       3.15350533
H       -1.89696503      -2.53082657       1.48873138
H       -3.13275528      -3.46938896       4.28738213
H       -3.98375702      -2.39918709       3.22653198
H       -3.87940407      -5.20998192      -1.26134109
H       -5.27768707      -6.10945892      -0.81255722
H       -3.71725273      -6.90533447      -0.70045471
15
Properties=species:S:1:pos:R:3 name=EMC mapped_smiles="[C:1]([C:2]([O:3][C:4](=[O:5])[O:6][C:7]([H:13])([H:14])[H:15])([H:11])[H:12])([H:8])([H:9])[H:10]" pbc="F F F"
C       -2.28286362      -2.70383072       1.60533524
C       -3.62320328      -2.48847771       0.90029907
O       -4.34192276      -3.71011925       0.76904678
C       -4.86995888      -4.10191345      -0.46202469
O       -4.80911446      -3.50962830      -1.52943611
O       -5.14145088      -5.39003372      -0.26666260
C       -5.82003593      -6.28397751      -1.25683212
H       -1.52825928      -2.83753777       0.90766907
H       -2.35416794      -3.54388809       2.23223495
H       -2.01391411      -1.89434052       2.39205360
H       -4.28753471      -1.82855988       1.51557159
H       -3.39772034      -2.00133514      -0.02356529
H       -5.72811508      -7.31768608      -0.85992432
H       -5.32728577      -6.20786667      -2.20571899
H       -6.81950760      -5.87526703      -1.41147995
15
Properties=species:S:1:pos:R:3 name=EMC mapped_smiles="[C:1]([C:2]([O:3][C:4](=[O:5])[O:6][C:7]([H:13])([H:14])[H:15])([H:11])[H:12])([H:8])([H:9])[H:10]" pbc="F F F"
C        2.32526779       8.42467499       1.04698944
C        2.94283295       7.33039284       0.17448425
O        2.78152847       6.06835365       0.95850372
C        1.74204254       5.20307732       0.67274475
O        1.15868759       5.05814362      -0.37450790
O        1.58573532       4.35553741       1.78680801
C        0.54560089       3.30209732       1.83248520
H        2.95398331       8.65082932       1.93321991
H        1.31660843       8.19210052       1.18445206
H        2.41436386       9.37015533       0.41693115
H        2.53196335       7.20741844      -0.80119324
H        4.09001160       7.39803505       0.07727814
H        0.54999924       2.67890739       0.93053055
H       -0.41838074       3.86757088       1.86190796
H        0.67576981       2.71823311       2.78030777
