1
Properties=species:S:1:pos:R:3 name=LI mapped_smiles="[Li+:1]" pbc="F F F"
Li       3.39695740       1.79689026       5.50192261
1
Properties=species:S:1:pos:R:3 name=LI mapped_smiles="[Li+:1]" pbc="F F F"
Li       3.52795982       2.52061844      -0.37059784
1
Properties=species:S:1:pos:R:3 name=LI mapped_smiles="[Li+:1]" pbc="F F F"
Li       0.84565926       4.07155609       0.25529480
1
Properties=species:S:1:pos:R:3 name=LI mapped_smiles="[Li+:1]" pbc="F F F"
Li      -3.38530731      -0.72383118      -3.01605225
1
Properties=species:S:1:pos:R:3 name=LI mapped_smiles="[Li+:1]" pbc="F F F"
Li       3.39740372      -1.80364799      -2.12436295
1
Properties=species:S:1:pos:R:3 name=LI mapped_smiles="[Li+:1]" pbc="F F F"
Li       3.47890282       1.39975739      -3.44879150
1
Properties=species:S:1:pos:R:3 name=LI mapped_smiles="[Li+:1]" pbc="F F F"
Li       5.08560753      -1.58377075       0.18665314
1
Properties=species:S:1:pos:R:3 name=LI mapped_smiles="[Li+:1]" pbc="F F F"
Li       2.42240524      -4.06300545      -2.61914635
1
Properties=species:S:1:pos:R:3 name=LI mapped_smiles="[Li+:1]" pbc="F F F"
Li       0.00000000       0.00000000       0.00000000
1
Properties=species:S:1:pos:R:3 name=LI mapped_smiles="[Li+:1]" pbc="F F F"
Li      -5.30949402      -0.67211151      -0.87739944
1
Properties=species:S:1:pos:R:3 name=LI mapped_smiles="[Li+:1]" pbc="F F F"
Li       0.00000000       0.00000000       0.00000000
1
Properties=species:S:1:pos:R:3 name=LI mapped_smiles="[Li+:1]" pbc="F F F"
Li       2.84268188      -2.85375404      -2.82024193
1
Properties=species:S:1:pos:R:3 name=LI mapped_smiles="[Li+:1]" pbc="F F F"
Li      -4.64348984       3.24019814       1.15643692
1
Properties=species:S:1:pos:R:3 name=LI mapped_smiles="[Li+:1]" pbc="F F F"
Li       1.04373932      -3.91281128      -2.97671127
1
Properties=species:S:1:pos:R:3 name=LI mapped_smiles="[Li+:1]" pbc="F F F"
Li      -1.98851967      -3.08120155      -1.23876572
1
Properties=species:S:1:pos:R:3 name=LI mapped_smiles="[Li+:1]" pbc="F F F"
Li      -0.82002258      -5.19831467       3.00405121
1
Properties=species:S:1:pos:R:3 name=LI mapped_smiles="[Li+:1]" pbc="F F F"
Li       3.12318993      -0.47320557       1.92406082
1
Properties=species:S:1:pos:R:3 name=LI mapped_smiles="[Li+:1]" pbc="F F F"
Li       0.44069290       3.03464890       1.85279846
1
Properties=species:S:1:pos:R:3 name=LI mapped_smiles="[Li+:1]" pbc="F F F"
Li      -2.97892380      -2.27682495       2.17284775
1
Properties=species:S:1:pos:R:3 name=LI mapped_smiles="[Li+:1]" pbc="F F F"
Li       4.61609077       0.58744812       1.61593628
1
Properties=species:S:1:pos:R:3 name=LI mapped_smiles="[Li+:1]" pbc="F F F"
Li      -3.70911407      -2.72771072       0.99088287
1
Properties=species:S:1:pos:R:3 name=LI mapped_smiles="[Li+:1]" pbc="F F F"
Li       2.12266731      -0.31044388      -4.70755005
1
Properties=species:S:1:pos:R:3 name=LI mapped_smiles="[Li+:1]" pbc="F F F"
Li      -0.55219269      -3.92240143       2.05316162
1
Properties=species:S:1:pos:R:3 name=LI mapped_smiles="[Li+:1]" pbc="F F F"
Li       3.80470657       0.49209595      -0.89050293
1
Properties=species:S:1:pos:R:3 name=LI mapped_smiles="[Li+:1]" pbc="F F F"
Li      -4.37685204      -1.23357010      -1.54657364
1
Properties=species:S:1:pos:R:3 name=LI mapped_smiles="[Li+:1]" pbc="F F F"
Li      -5.20998383      -1.76139069      -5.79550171
1
Properties=species:S:1:pos:R:3 name=LI mapped_smiles="[Li+:1]" pbc="F F F"
Li       0.13909912      -0.70098114       4.20989227
1
Properties=species:S:1:pos:R:3 name=LI mapped_smiles="[Li+:1]" pbc="F F F"
Li      -2.68607521      -3.58896637      -4.13407516
1
Properties=species:S:1:pos:R:3 name=LI mapped_smiles="[Li+:1]" pbc="F F F"
Li      -2.88998032       2.15076447      -3.18699646
1
Properties=species:S:1:pos:R:3 name=LI mapped_smiles="[Li+:1]" pbc="F F F"
Li      -0.48419952      -3.71844292       0.45858955
1
Properties=species:S:1:pos:R:3 name=LI mapped_smiles="[Li+:1]" pbc="F F F"
Li      -3.01646042       2.11100006      -1.94698334
1
Properties=species:S:1:pos:R:3 name=LI mapped_smiles="[Li+:1]" pbc="F F F"
Li       1.10442734      -2.29392242       5.84160614
1
Properties=species:S:1:pos:R:3 name=LI mapped_smiles="[Li+:1]" pbc="F F F"
Li       4.66904068       1.21426010       3.95177460
1
Properties=species:S:1:pos:R:3 name=LI mapped_smiles="[Li+:1]" pbc="F F F"
Li       3.74548531      -1.90207863      -3.14134026
1
Properties=species:S:1:pos:R:3 name=LI mapped_smiles="[Li+:1]" pbc="F F F"
Li       0.00000000       0.00000000       0.00000000
1
Properties=species:S:1:pos:R:3 name=LI mapped_smiles="[Li+:1]" pbc="F F F"
Li      -2.48646736      -2.74048615      -3.89954376
1
Properties=species:S:1:pos:R:3 name=LI mapped_smiles="[Li+:1]" pbc="F F F"
Li      -0.68380165       0.51716995       4.20083618
1
Properties=species:S:1:pos:R:3 name=LI mapped_smiles="[Li+:1]" pbc="F F F"
Li      -2.90721512      -2.73508644      -1.01582718
1
Properties=species:S:1:pos:R:3 name=LI mapped_smiles="[Li+:1]" pbc="F F F"
Li      -3.34803772      -2.29019928      -2.52856445
1
Properties=species:S:1:pos:R:3 name=LI mapped_smiles="[Li+:1]" pbc="F F F"
Li       1.16548157       3.96057129      -2.15110779
