$molecule
1 1
  C     9.41619639    2.50610232   11.54426415
  C    10.30778933    3.72874957   11.65015155
  O     9.47610412    4.88893714   11.49428658
  C    10.05023401    6.01989344   11.19533391
  O    11.24830264    6.18877263   11.05622219
  O     9.15099340    6.97134534   11.09296355
  C     9.63312889    8.29537647   10.87035050
  H    10.00863787    1.60866836   11.69306206
  H     8.94731081    2.46822940   10.56551632
  H     8.63627372    2.54690653   12.29916286
  H    10.78915661    3.78087431   12.63225978
  H    11.08056458    3.73686774   10.87516015
  H    10.27238462    8.33210570    9.98811686
  H    10.19558209    8.64035980   11.73935870
  H     8.74406397    8.90588234   10.73533600
  C     7.25982502    5.96052142    8.21331446
  C     8.38237545    6.59046618    7.40729881
  O     9.18318489    5.60603001    6.72331135
  C     9.93936217    4.81463000    7.45165997
  O    10.13531783    4.93273509    8.64137006
  O    10.45667177    3.87612118    6.69300565
  C    11.27768788    2.89995336    7.34094341
  H     7.65777573    5.39653296    9.05322093
  H     6.66555877    5.30232225    7.58420953
  H     6.61865813    6.74694589    8.59990800
  H     7.99005276    7.20436595    6.59511115
  H     9.02961226    7.19212470    8.05013317
  H    12.13766571    3.37424883    7.81258992
  H    11.58892729    2.22022460    6.55204331
  H    10.70006381    2.36373585    8.09401627
  C    14.73441858    6.19665066   12.03962202
  C    14.49488314    7.40353231   11.11315093
  O    13.87669216    6.82169543    9.96991246
  C    13.69357495    5.53116776   10.16963794
  O    13.13387450    4.82631596    9.37481532
  O    14.18852001    5.10504140   11.30751193
  H    14.20092881    6.27234840   12.98958796
  H    15.79270011    5.99474342   12.22413158
  H    15.41786961    7.89584497   10.79738857
  H    13.80812472    8.13758361   11.53876381
  C    11.67683982    7.16297420    4.75520447
  C    12.46438585    5.92471018    5.22089375
  O    12.37058854    5.99114597    6.64214280
  C    11.66338742    7.04475870    6.99304259
  O    11.41863699    7.32313540    8.13504412
  O    11.24778490    7.75957093    5.97271566
  H    10.79164610    6.91189654    4.16613916
  H    12.28789499    7.88830627    4.21244646
  H    13.52061110    5.95246565    4.94293807
  H    12.01586897    4.98478759    4.89048816
  Li   11.56540474    5.86066937    9.25814760
$end

    $rem
    JOBTYPE                     FORCE
    METHOD                      B3LYP
    BASIS                       def2-SVPD
    XC_GRID                     000099000590
    NL_GRID                     000050000194
    MAX_SCF_CYCLES              100
    SCF_CONVERGENCE             8
    THRESH                      13
    BASIS_LIN_DEP_THRESH        13
    INCDFT_DENDIFF_THRESH       14
    INCDFT_GRIDDIFF_THRESH      14
    MEM_STATIC                  8000
    MEM_TOTAL                   80000
    SYMMETRY                    FALSE
    SYM_IGNORE                  TRUE
    !LOWDIN_POPULATION           TRUE
    CHELPG                      TRUE
    !ESP_CHARGES                 1
    RESP_CHARGES                1
    !HIRSHFELD                   TRUE
    !CM5                         TRUE
    DFT_D D3_BJ
AUX_BASIS                   RIJK-def2-qzvpp
    occ_ri_k                    TRUE
    ri_k_grad                   TRUE
        $end

$archive
enable_archive = True !Turns on generation of Archive
$end

