$molecule
0 1
  C    -7.37791821   -8.50080392   13.48272327
  C    -8.73149297   -7.92198750   13.68085483
  O    -9.44856450   -8.31919190   12.46652988
  C    -8.79621312   -9.39780328   11.89843372
  O    -9.26845261   -9.97258088   10.96047214
  O    -7.64141843   -9.61923692   12.55240253
  H    -6.91647908   -8.86628720   14.35916522
  H    -6.70735547   -7.71690366   13.04944995
  H    -8.77675626   -6.82638738   13.81266788
  H    -9.20309350   -8.44585606   14.54582980
  C   -11.54100797  -14.29707047   10.68421176
  C   -11.47638223  -14.83341596    9.29885104
  O   -11.33481213  -13.67899796    8.46430591
  C   -10.97620198  -12.58921143    9.21858600
  O   -10.64835069  -11.53015515    8.80772403
  O   -11.13952348  -12.90227315   10.54637912
  H   -10.88852212  -14.80259129   11.39622501
  H   -12.53410622  -14.36855695   11.08172229
  H   -12.40681550  -15.31932065    8.92819598
  H   -10.65557477  -15.49239156    9.03009418
  C    -4.90385625  -12.83647630    7.02365497
  C    -4.11832425  -12.31127164    8.18645099
  O    -5.05517575  -11.32269475    8.76807025
  C    -6.33768079  -11.45245835    8.22587588
  O    -7.30299756  -10.82216832    8.61064914
  O    -6.25905797  -12.34949777    7.17509845
  H    -5.02577779  -13.92232987    7.01950267
  H    -4.49431798  -12.56068608    6.03791049
  H    -3.20359036  -11.87220952    7.87664798
  H    -4.03608891  -13.05998036    9.02315143
  Li   -9.17393014  -10.29324338    9.06105426
  P    -9.95917794   -7.47055623    7.46202090
  F    -8.58628747   -7.14141461    7.74865916
  F    -9.59875390   -8.93155953    7.95914081
  F   -10.28964517   -7.07680127    8.93576434
  F   -11.25700757   -7.76335141    7.15211681
  F   -10.22882077   -5.78497884    7.10058978
  F    -9.42131326   -7.82064053    5.80036739
$end

    $rem
    JOBTYPE                     FORCE
    METHOD                      B3LYP
    BASIS                       def2-SVPD
    XC_GRID                     000099000590
    NL_GRID                     000050000194
    MAX_SCF_CYCLES              100
    SCF_CONVERGENCE             8
    THRESH                      13
    BASIS_LIN_DEP_THRESH        13
    INCDFT_DENDIFF_THRESH       14
    INCDFT_GRIDDIFF_THRESH      14
    MEM_STATIC                  8000
    MEM_TOTAL                   80000
    SYMMETRY                    FALSE
    SYM_IGNORE                  TRUE
    !LOWDIN_POPULATION           TRUE
    CHELPG                      TRUE
    !ESP_CHARGES                 1
    RESP_CHARGES                1
    !HIRSHFELD                   TRUE
    !CM5                         TRUE
    DFT_D D3_BJ
AUX_BASIS                   RIJK-def2-qzvpp
    occ_ri_k                    TRUE
    ri_k_grad                   TRUE
        $end

$archive
enable_archive = True !Turns on generation of Archive
$end

