12
Properties=species:S:1:pos:R:3 name=BZ mapped_smiles="[c:1]1([H:7])[c:2]([H:8])[c:3]([H:9])[c:4]([H:10])[c:5]([H:11])[c:6]1[H:12]" pbc="F F F"
C        0.00000000       0.00000000       0.00000000
C       -1.18609238       0.58721161       0.44124985
C       -2.41190338       0.25731468      -0.18456268
C       -2.41147232      -0.73983955      -1.20277023
C       -1.20417023      -1.29733849      -1.61974335
C       -0.00151443      -0.95625114      -1.00174713
H        0.97577286       0.22141838       0.37570953
H       -1.11291885       1.29295921       1.27994537
H       -3.39003754       0.69812965       0.09993744
H       -3.35865402      -0.95748711      -1.72341919
H       -1.22679901      -1.91638565      -2.47389221
H        0.94019699      -1.40740776      -1.24699783
12
Properties=species:S:1:pos:R:3 name=BZ mapped_smiles="[c:1]1([H:7])[c:2]([H:8])[c:3]([H:9])[c:4]([H:10])[c:5]([H:11])[c:6]1[H:12]" pbc="F F F"
C        0.00000000       0.00000000       0.00000000
C        1.05239105       0.84055710      -0.48499680
C        2.28009796       0.27832794      -0.80991364
C        2.39168549      -1.13844299      -0.80045700
C        1.32392120      -1.98853874      -0.47071838
C        0.10715485      -1.40096283      -0.06462097
H       -0.87221527       0.41448593       0.42692947
H        0.95116425       1.92066574      -0.34761047
H        3.10468292       0.93137360      -1.09488678
H        3.35382080      -1.55436516      -1.04030609
H        1.53459167      -3.04997063      -0.62685013
H       -0.73180389      -2.03403282       0.24392319
12
Properties=species:S:1:pos:R:3 name=BZ mapped_smiles="[c:1]1([H:7])[c:2]([H:8])[c:3]([H:9])[c:4]([H:10])[c:5]([H:11])[c:6]1[H:12]" pbc="F F F"
C        0.00000000       0.00000000       0.00000000
C        0.17308807      -1.37446404      -0.27186966
C        0.99555206      -2.15676880       0.44711685
C        1.69494629      -1.59533882       1.51881409
C        1.50214005      -0.23605156       1.78816223
C        0.69678116       0.58778572       1.03110504
H       -0.61129761       0.61037636      -0.60087967
H       -0.52780151      -1.86488914      -0.97272873
H        1.08261108      -3.21443367       0.12393188
H        2.44268799      -2.18806458       2.01494980
H        1.96768951       0.12554359       2.68787003
H        0.49292374       1.62190247       1.26306534
12
Properties=species:S:1:pos:R:3 name=BZ mapped_smiles="[c:1]1([H:7])[c:2]([H:8])[c:3]([H:9])[c:4]([H:10])[c:5]([H:11])[c:6]1[H:12]" pbc="F F F"
C        0.00000000       0.00000000       0.00000000
C        0.44642258      -1.15133476       0.51653862
C        1.05851746      -2.17002678      -0.23286438
C        1.39308929      -1.83202171      -1.53755760
C        1.00910187      -0.61480522      -2.11207390
C        0.26917648       0.33558273      -1.35685158
H       -0.52367020       0.67796326       0.63018036
H        0.24758148      -1.32262611       1.61935425
H        1.34440231      -3.13279343       0.13707352
H        1.92857361      -2.60150337      -2.16894341
H        1.31110382      -0.41903877      -3.14970207
H       -0.03184891       1.33448601      -1.73039436
12
Properties=species:S:1:pos:R:3 name=BZ mapped_smiles="[c:1]1([H:7])[c:2]([H:8])[c:3]([H:9])[c:4]([H:10])[c:5]([H:11])[c:6]1[H:12]" pbc="F F F"
C        0.00000000       0.00000000       0.00000000
C       -0.49806213       0.21162987      -1.33322906
C       -0.27592659      -0.70099068      -2.34463120
C        0.60982132      -1.76952934      -2.12099457
C        1.22635651      -1.89149094      -0.84355545
C        0.90441513      -1.03894997       0.22206497
H       -0.22491455       0.72226524       0.76869583
H       -1.17161942       1.01593971      -1.66942596
H       -0.86837006      -0.54475594      -3.22332764
H        0.78177643      -2.58498955      -2.84174728
H        1.93747330      -2.72007561      -0.77285385
H        1.48770714      -1.09896660       1.13180161
12
Properties=species:S:1:pos:R:3 name=BZ mapped_smiles="[c:1]1([H:7])[c:2]([H:8])[c:3]([H:9])[c:4]([H:10])[c:5]([H:11])[c:6]1[H:12]" pbc="F F F"
C        0.00000000       0.00000000       0.00000000
C       -0.76800728       0.78231430       0.81604004
C       -2.11185455       0.65653801       0.97760391
C       -2.69753456      -0.40161896       0.27934647
C       -2.01654053      -1.27108574      -0.53968430
C       -0.59083366      -1.15607643      -0.53815842
H        1.05378914       0.15230179      -0.03217697
H       -0.31996918       1.55060196       1.34982681
H       -2.71501732       1.40856361       1.52029419
H       -3.76825523      -0.73061752       0.28477478
H       -2.61317062      -1.91113472      -1.14748001
H        0.14325333      -1.81519699      -0.99928665
12
Properties=species:S:1:pos:R:3 name=BZ mapped_smiles="[c:1]1([H:7])[c:2]([H:8])[c:3]([H:9])[c:4]([H:10])[c:5]([H:11])[c:6]1[H:12]" pbc="F F F"
C        0.00000000       0.00000000       0.00000000
C        0.78933144       0.44628143       0.99217224
C        1.97750854      -0.18741226       1.29689217
C        2.31783676      -1.34391403       0.57206154
C        1.61570549      -1.75542259      -0.54757118
C        0.42565727      -1.04926491      -0.78433037
H       -0.94656372       0.47686577      -0.30088615
H        0.48937035       1.36099625       1.50078773
H        2.60499763       0.20804024       2.11289978
H        3.18692017      -1.95020676       0.84901237
H        1.88708305      -2.59608269      -1.11450768
H       -0.29976082      -1.43853188      -1.48996544
12
Properties=species:S:1:pos:R:3 name=BZ mapped_smiles="[c:1]1([H:7])[c:2]([H:8])[c:3]([H:9])[c:4]([H:10])[c:5]([H:11])[c:6]1[H:12]" pbc="F F F"
C        0.00000000       0.00000000       0.00000000
C       -0.71369553       0.17282867       1.25236511
C       -2.13230133       0.34169769       1.25799561
C       -2.79347992       0.39170837       0.08137131
C       -2.10840607       0.30052185      -1.16491699
C       -0.72471046       0.05776215      -1.18185425
H        1.06222916      -0.12891388      -0.07197571
H       -0.19695473       0.24472046       2.18197250
H       -2.70692253       0.45314026       2.16699219
H       -3.86604881       0.57398224       0.05064011
H       -2.64034462       0.24217987      -2.07989693
H       -0.16991615       0.10485840      -2.06755638
12
Properties=species:S:1:pos:R:3 name=BZ mapped_smiles="[c:1]1([H:7])[c:2]([H:8])[c:3]([H:9])[c:4]([H:10])[c:5]([H:11])[c:6]1[H:12]" pbc="F F F"
C        0.00000000       0.00000000       0.00000000
C        0.70185852       0.10925293      -1.12247276
C        0.97595215       1.38667488      -1.58065987
C        0.40725708       2.50147247      -0.89716911
C       -0.29749298       2.39464951       0.32018661
C       -0.60812378       1.10927773       0.70053291
H       -0.30057526      -0.99043465       0.29102516
H        1.01236725      -0.81699562      -1.69661522
H        1.54188538       1.53423500      -2.50496864
H        0.62719727       3.48067284      -1.29753876
H       -0.67687225       3.24344063       0.87369728
H       -1.19128418       0.98699570       1.58114052
12
Properties=species:S:1:pos:R:3 name=BZ mapped_smiles="[c:1]1([H:7])[c:2]([H:8])[c:3]([H:9])[c:4]([H:10])[c:5]([H:11])[c:6]1[H:12]" pbc="F F F"
C        0.00000000       0.00000000       0.00000000
C       -0.68900871       0.90550804       0.81646729
C       -1.96887398       1.36789513       0.34554291
C       -2.43671608       0.98662376      -0.90007019
C       -1.59739876       0.23920631      -1.73252869
C       -0.44209671      -0.28781700      -1.27987671
H        0.91587448      -0.42539787       0.19741058
H       -0.20221138       1.12767029       1.79623413
H       -2.57098579       1.99962807       0.98591614
H       -3.32307243       1.47469330      -1.25222015
H       -1.85935020       0.01039886      -2.77459717
H        0.15597534      -0.87726593      -1.91641235
12
Properties=species:S:1:pos:R:3 name=BZ mapped_smiles="[c:1]1([H:7])[c:2]([H:8])[c:3]([H:9])[c:4]([H:10])[c:5]([H:11])[c:6]1[H:12]" pbc="F F F"
C        0.00000000       0.00000000       0.00000000
C       -0.78981018      -0.93250275       0.61918640
C       -0.49856949      -2.36353302       0.44501495
C        0.49773407      -2.77188873      -0.39783478
C        1.31622696      -1.80294037      -0.93228149
C        1.12986374      -0.42647934      -0.65435028
H       -0.22013474       1.10582352       0.19721985
H       -1.65815735      -0.66719055       1.20034027
H       -1.20332336      -3.04925919       0.83480835
H        0.63163376      -3.79672241      -0.68049622
H        2.10586548      -2.11191177      -1.62496948
H        1.74077225       0.29407883      -1.17165375
12
Properties=species:S:1:pos:R:3 name=BZ mapped_smiles="[c:1]1([H:7])[c:2]([H:8])[c:3]([H:9])[c:4]([H:10])[c:5]([H:11])[c:6]1[H:12]" pbc="F F F"
C        0.00000000       0.00000000       0.00000000
C        0.86346436      -1.09251022       0.15209579
C        2.03719711      -1.16122055      -0.57516098
C        2.35432434      -0.12786102      -1.50247955
C        1.46037292       1.00243378      -1.70975494
C        0.30498505       1.08452225      -0.92617035
H       -1.01647568       0.12820053       0.55091858
H        0.66228485      -1.95520020       0.85471344
H        2.74428558      -2.00807571      -0.44386673
H        3.34876251      -0.15253448      -2.01976395
H        1.67595291       1.76893997      -2.49930954
H       -0.42070007       1.84654999      -1.06036758
12
Properties=species:S:1:pos:R:3 name=BZ mapped_smiles="[c:1]1([H:7])[c:2]([H:8])[c:3]([H:9])[c:4]([H:10])[c:5]([H:11])[c:6]1[H:12]" pbc="F F F"
C        0.00000000       0.00000000       0.00000000
C       -0.08152771       0.40297699       1.34995461
C       -1.13961411       1.11129761       1.90675926
C       -2.22875214       1.40222168       1.13822365
C       -2.14007568       1.13784790      -0.21289253
C       -1.06625366       0.39544296      -0.76676369
H        0.81571579      -0.54550743      -0.40085983
H        0.68621063       0.04529381       2.04438782
H       -1.19272614       1.34572411       2.99253654
H       -3.09568405       1.98232651       1.52869987
H       -3.02949142       1.35199928      -0.78164864
H       -1.10411835       0.13157654      -1.77020836
12
Properties=species:S:1:pos:R:3 name=BZ mapped_smiles="[c:1]1([H:7])[c:2]([H:8])[c:3]([H:9])[c:4]([H:10])[c:5]([H:11])[c:6]1[H:12]" pbc="F F F"
C        0.00000000       0.00000000       0.00000000
C        0.19329453      -0.70642853      -1.17260933
C        0.02270508      -0.10998535      -2.39540863
C       -0.33491516       1.26054764      -2.46667480
C       -0.65967560       2.02102661      -1.30646706
C       -0.35880280       1.35992432      -0.05423737
H        0.09521103      -0.43375397       0.99592781
H        0.49870682      -1.78423309      -1.16683578
H        0.07989120      -0.62596130      -3.39308739
H       -0.53898239       1.64907455      -3.48249435
H       -0.97867966       3.08102417      -1.39608574
H       -0.49311447       1.86383820       0.88405418
12
Properties=species:S:1:pos:R:3 name=BZ mapped_smiles="[c:1]1([H:7])[c:2]([H:8])[c:3]([H:9])[c:4]([H:10])[c:5]([H:11])[c:6]1[H:12]" pbc="F F F"
C        0.00000000       0.00000000       0.00000000
C       -0.57694244       1.18676949      -0.51277924
C       -0.79039955       1.23386192      -1.88784027
C       -0.67572975       0.13971710      -2.73405457
C       -0.12590790      -1.07343483      -2.20435715
C        0.12438774      -1.15637016      -0.81629562
H        0.07511711      -0.05997276       1.06531525
H       -0.72047615       2.08936691       0.08078384
H       -1.16158295       2.22889519      -2.25693512
H       -1.03519440       0.07991982      -3.78391266
H       -0.02520370      -1.98264122      -2.84445572
H        0.54790688      -2.03935814      -0.38707733
12
Properties=species:S:1:pos:R:3 name=BZ mapped_smiles="[c:1]1([H:7])[c:2]([H:8])[c:3]([H:9])[c:4]([H:10])[c:5]([H:11])[c:6]1[H:12]" pbc="F F F"
C        0.00000000       0.00000000       0.00000000
C       -1.35577393      -0.01663589       0.27761459
C       -2.30813980      -0.10980415      -0.74387360
C       -1.88850403      -0.07184410      -2.06161880
C       -0.50358582      -0.04480362      -2.42369461
C        0.42564392       0.00947762      -1.33563042
H        0.71963882       0.05400467       0.80243683
H       -1.68083191      -0.02000046       1.31459808
H       -3.38061142      -0.19008827      -0.51524162
H       -2.59423828      -0.16759109      -2.81696701
H       -0.26007080      -0.27773857      -3.43042564
H        1.48794556       0.01876640      -1.55356407
12
Properties=species:S:1:pos:R:3 name=BZ mapped_smiles="[c:1]1([H:7])[c:2]([H:8])[c:3]([H:9])[c:4]([H:10])[c:5]([H:11])[c:6]1[H:12]" pbc="F F F"
C        0.00000000       0.00000000       0.00000000
C        0.24469757       1.07725906       0.91053009
C       -0.36768723       1.11987686       2.17577362
C       -1.24660110       0.11966896       2.56862068
C       -1.52487183      -0.99899673       1.67649841
C       -0.86988449      -1.04790688       0.45239258
H        0.50951385      -0.07445145      -0.95300102
H        0.88893127       1.85217476       0.62885094
H       -0.07199860       1.96211243       2.84997368
H       -1.70445251       0.14561462       3.55047035
H       -2.29527283      -1.72575951       1.96978378
H       -1.12569427      -1.91553116      -0.17723656
12
Properties=species:S:1:pos:R:3 name=BZ mapped_smiles="[c:1]1([H:7])[c:2]([H:8])[c:3]([H:9])[c:4]([H:10])[c:5]([H:11])[c:6]1[H:12]" pbc="F F F"
C        0.00000000       0.00000000       0.00000000
C       -1.00791168      -0.38979721      -0.86073303
C       -0.65084267      -1.03043175      -2.09606171
C        0.69752884      -1.42784691      -2.24375534
C        1.68368912      -1.10693359      -1.31803131
C        1.34607124      -0.32721138      -0.21445465
H       -0.30378532       0.35990715       0.96720505
H       -1.99312592      -0.06785393      -0.58514023
H       -1.39624405      -1.40210724      -2.81320190
H        0.92999458      -1.92568588      -3.16960907
H        2.76482201      -1.45845413      -1.35032654
H        2.02483177      -0.03408623       0.49327469
12
Properties=species:S:1:pos:R:3 name=BZ mapped_smiles="[c:1]1([H:7])[c:2]([H:8])[c:3]([H:9])[c:4]([H:10])[c:5]([H:11])[c:6]1[H:12]" pbc="F F F"
C        0.00000000       0.00000000       0.00000000
C       -1.34411430       0.43757629      -0.01351166
C       -1.78019905       1.37963676      -0.96485901
C       -0.86848068       1.92889595      -1.82543182
C        0.52861214       1.47960091      -1.82743454
C        0.92204857       0.53804016      -0.87223434
H        0.28258133      -0.81612587       0.71015930
H       -2.03484344      -0.00368690       0.67654419
H       -2.78599358       1.84488106      -0.88293076
H       -1.12492561       2.84084702      -2.41724396
H        1.22422409       1.91827583      -2.52507019
H        1.86015892       0.12467384      -0.95227814
12
Properties=species:S:1:pos:R:3 name=BZ mapped_smiles="[c:1]1([H:7])[c:2]([H:8])[c:3]([H:9])[c:4]([H:10])[c:5]([H:11])[c:6]1[H:12]" pbc="F F F"
C        0.00000000       0.00000000       0.00000000
C        0.53539658      -0.16164970       1.29310989
C        1.16252899       0.98035622       1.92560959
C        1.36446762       2.18386269       1.17256165
C        0.78527832       2.26044655      -0.09224319
C        0.16127396       1.18886185      -0.70636368
H       -0.47868347      -0.86808395      -0.39363861
H        0.40877151      -1.13084793       1.86133957
H        1.58664322       0.84022522       2.91633987
H        1.96118546       3.08917618       1.47923660
H        0.82644272       3.23009109      -0.66028976
H       -0.29949951       1.19415855      -1.71804810
12
Properties=species:S:1:pos:R:3 name=BZ mapped_smiles="[c:1]1([H:7])[c:2]([H:8])[c:3]([H:9])[c:4]([H:10])[c:5]([H:11])[c:6]1[H:12]" pbc="F F F"
C        0.00000000       0.00000000       0.00000000
C        0.82223129      -0.44888306       1.03815079
C        2.01968002      -1.11354065       0.86273575
C        2.46992111      -1.31673431      -0.45596695
C        1.65494537      -0.90608215      -1.53512955
C        0.41375732      -0.33452225      -1.28913879
H       -0.94859314       0.50579453       0.16762924
H        0.47214508      -0.22735214       2.06621170
H        2.56350708      -1.22318268       1.75411606
H        3.44131470      -1.76384544      -0.56556702
H        1.96971130      -1.03429413      -2.55503845
H       -0.22686005      -0.19142914      -2.16083145
12
Properties=species:S:1:pos:R:3 name=BZ mapped_smiles="[c:1]1([H:7])[c:2]([H:8])[c:3]([H:9])[c:4]([H:10])[c:5]([H:11])[c:6]1[H:12]" pbc="F F F"
C        0.00000000       0.00000000       0.00000000
C       -0.17858124      -0.83988953       1.13771820
C       -1.48412704      -1.12949371       1.55495453
C       -2.60866547      -0.55781555       0.97591400
C       -2.46175766       0.21945190      -0.18241501
C       -1.16930771       0.47592926      -0.71206284
H        1.04374313       0.27718353      -0.29122543
H        0.70555115      -1.23707581       1.51471710
H       -1.58195114      -1.81871796       2.33196640
H       -3.64248657      -0.78750610       1.32271576
H       -3.35235977       0.59759521      -0.67907715
H       -1.06943893       1.13606262      -1.56824112
12
Properties=species:S:1:pos:R:3 name=BZ mapped_smiles="[c:1]1([H:7])[c:2]([H:8])[c:3]([H:9])[c:4]([H:10])[c:5]([H:11])[c:6]1[H:12]" pbc="F F F"
C        0.00000000       0.00000000       0.00000000
C        1.24703407       0.67026901      -0.15658569
C        1.55029297       1.86559677       0.48722458
C        0.66242027       2.35653305       1.39776993
C       -0.56812286       1.75820541       1.59262085
C       -0.88077354       0.49127579       0.96861267
H       -0.25638580      -0.90196991      -0.55200195
H        1.89533806       0.22697449      -0.94038773
H        2.42654991       2.47633362       0.34487534
H        1.00677109       3.21934891       1.97085953
H       -1.26679993       2.15830231       2.25683594
H       -1.79837036      -0.02644348       1.21345139
12
Properties=species:S:1:pos:R:3 name=BZ mapped_smiles="[c:1]1([H:7])[c:2]([H:8])[c:3]([H:9])[c:4]([H:10])[c:5]([H:11])[c:6]1[H:12]" pbc="F F F"
C        0.00000000       0.00000000       0.00000000
C        0.13349533       1.12922096      -0.78290749
C        1.05804062       2.12855911      -0.38949203
C        1.80727768       1.93475914       0.79703712
C        1.59308434       0.75444794       1.57784462
C        0.68434525      -0.21710777       1.13711929
H       -0.70001411      -0.80389977      -0.28909683
H       -0.43454742       1.33026695      -1.65461540
H        1.28368187       3.01450348      -0.96502113
H        2.54773140       2.67416000       1.08748245
H        2.16531563       0.73119736       2.51208115
H        0.60482216      -1.13637733       1.77926636
12
Properties=species:S:1:pos:R:3 name=BZ mapped_smiles="[c:1]1([H:7])[c:2]([H:8])[c:3]([H:9])[c:4]([H:10])[c:5]([H:11])[c:6]1[H:12]" pbc="F F F"
C        0.00000000       0.00000000       0.00000000
C        0.41064072       0.61304283       1.22611237
C       -0.05347443       1.89400864       1.59200096
C       -1.05872726       2.45630836       0.69256401
C       -1.44183350       1.87562180      -0.51544762
C       -0.82623672       0.67924309      -0.90574837
H        0.25513458      -1.02807999      -0.24631882
H        1.07592010       0.06233025       1.92919731
H        0.22370911       2.46676254       2.45516777
H       -1.50646591       3.42973900       0.96481133
H       -2.32221985       2.34254837      -0.99365807
H       -1.19935226       0.13568115      -1.72122765
12
Properties=species:S:1:pos:R:3 name=BZ mapped_smiles="[c:1]1([H:7])[c:2]([H:8])[c:3]([H:9])[c:4]([H:10])[c:5]([H:11])[c:6]1[H:12]" pbc="F F F"
C        0.00000000       0.00000000       0.00000000
C        0.21243286       1.35717010       0.09978867
C       -0.41561127       2.23825455      -0.75874329
C       -1.29767418       1.74373627      -1.71784973
C       -1.51038170       0.32287598      -1.86101913
C       -0.87650681      -0.58166122      -1.01279068
H        0.59988785      -0.65590286       0.61355972
H        1.03860474       1.74774170       0.74591827
H       -0.20579910       3.32812119      -0.73070526
H       -1.75510979       2.40267181      -2.43594360
H       -2.10059929      -0.04956055      -2.72116470
H       -0.92285538      -1.68661118      -1.04408646
12
Properties=species:S:1:pos:R:3 name=BZ mapped_smiles="[c:1]1([H:7])[c:2]([H:8])[c:3]([H:9])[c:4]([H:10])[c:5]([H:11])[c:6]1[H:12]" pbc="F F F"
C        0.00000000       0.00000000       0.00000000
C       -1.20874977      -0.53519821      -0.40009689
C       -1.43101692      -0.90512085      -1.71882820
C       -0.38668823      -0.93614960      -2.62214470
C        0.90494156      -0.47420502      -2.18594170
C        1.03965569       0.10073853      -0.89696312
H        0.22963142       0.34185791       1.03543282
H       -2.02542686      -0.73165894       0.27702141
H       -2.42106056      -1.25685692      -1.92314339
H       -0.58273888      -1.27768707      -3.68776703
H        1.70177841      -0.48221970      -2.89984894
H        1.96042824       0.51942825      -0.52347565
12
Properties=species:S:1:pos:R:3 name=BZ mapped_smiles="[c:1]1([H:7])[c:2]([H:8])[c:3]([H:9])[c:4]([H:10])[c:5]([H:11])[c:6]1[H:12]" pbc="F F F"
C        0.00000000       0.00000000       0.00000000
C        0.98688126      -0.57774162      -0.83843613
C        1.75180817       0.25498772      -1.62596893
C        1.63836098       1.67375374      -1.61188889
C        0.81470299       2.19843292      -0.69536591
C       -0.04324722       1.42402840       0.09285736
H       -0.63377762      -0.68882942       0.55214691
H        1.08217430      -1.66138268      -0.93874359
H        2.52125740      -0.27770996      -2.18220139
H        2.27667046       2.29356003      -2.22039413
H        0.71783447       3.26046753      -0.68620300
H       -0.75850868       1.90276527       0.80558395
12
Properties=species:S:1:pos:R:3 name=BZ mapped_smiles="[c:1]1([H:7])[c:2]([H:8])[c:3]([H:9])[c:4]([H:10])[c:5]([H:11])[c:6]1[H:12]" pbc="F F F"
C        0.00000000       0.00000000       0.00000000
C        0.83226776       0.99580002       0.54492188
C        2.06040955       0.63153839       1.07035446
C        2.40214157      -0.70665359       1.08964539
C        1.56211090      -1.71421051       0.56150436
C        0.36913681      -1.33880615      -0.01430321
H       -0.96005249       0.22552872      -0.36662292
H        0.50155640       2.04660797       0.52583313
H        2.78953171       1.38277435       1.46810913
H        3.34068298      -0.96433640       1.42435455
H        1.94949341      -2.70914459       0.47158051
H       -0.35784912      -2.10849762      -0.34674835
12
Properties=species:S:1:pos:R:3 name=BZ mapped_smiles="[c:1]1([H:7])[c:2]([H:8])[c:3]([H:9])[c:4]([H:10])[c:5]([H:11])[c:6]1[H:12]" pbc="F F F"
C        0.00000000       0.00000000       0.00000000
C       -0.01019287       0.16692543      -1.36848450
C        0.76624298      -0.62342072      -2.16556549
C        1.53356361      -1.75346756      -1.66941833
C        1.39186287      -1.96686935      -0.27534485
C        0.71167374      -1.06952667       0.53826904
H       -0.57974815       0.64194679       0.63679123
H       -0.47901535       1.00249290      -1.79127884
H        0.68663597      -0.37995338      -3.22504425
H        2.09176826      -2.38527298      -2.32611847
H        1.91612053      -2.77791595       0.14944458
H        0.76889992      -1.09953690       1.67135620
12
Properties=species:S:1:pos:R:3 name=BZ mapped_smiles="[c:1]1([H:7])[c:2]([H:8])[c:3]([H:9])[c:4]([H:10])[c:5]([H:11])[c:6]1[H:12]" pbc="F F F"
C        0.00000000       0.00000000       0.00000000
C        0.11440659      -1.15764236      -0.81154442
C        1.40150070      -1.56037140      -1.22349739
C        2.54364395      -0.89123154      -0.78339005
C        2.41174316       0.23455811       0.05180168
C        1.13443375       0.67398453       0.48491478
H       -1.02784348       0.35957336       0.27760887
H       -0.71950531      -1.73044205      -1.25596428
H        1.46189880      -2.29665756      -2.05420876
H        3.50378799      -1.35552216      -0.98117447
H        3.27834702       0.80111313       0.34626007
H        1.08444214       1.46558380       1.19583702
12
Properties=species:S:1:pos:R:3 name=BZ mapped_smiles="[c:1]1([H:7])[c:2]([H:8])[c:3]([H:9])[c:4]([H:10])[c:5]([H:11])[c:6]1[H:12]" pbc="F F F"
C        0.00000000       0.00000000       0.00000000
C       -0.75423431       0.92165756      -0.72690201
C       -0.70242310       2.28653336      -0.49221039
C        0.09824371       2.80435944       0.49835968
C        0.77442551       1.89458847       1.32772446
C        0.75759125       0.53367615       1.04835510
H        0.02483749      -1.03334427      -0.32669449
H       -1.27569962       0.56273651      -1.59326553
H       -1.03256226       3.04094315      -1.21495056
H        0.18407822       3.89673615       0.60810089
H        1.41116333       2.27996445       2.12804413
H        1.44496536      -0.04876328       1.60482788
12
Properties=species:S:1:pos:R:3 name=BZ mapped_smiles="[c:1]1([H:7])[c:2]([H:8])[c:3]([H:9])[c:4]([H:10])[c:5]([H:11])[c:6]1[H:12]" pbc="F F F"
C        0.00000000       0.00000000       0.00000000
C       -1.07968712      -0.80749893       0.19401169
C       -2.29177094      -0.35606384       0.79863167
C       -2.43525696       1.02703857       1.08982277
C       -1.30970573       1.83800507       0.99723244
C       -0.12103653       1.36340714       0.39239693
H        0.94800186      -0.39584732      -0.39695549
H       -1.06460762      -1.83101273      -0.08637810
H       -3.17610359      -0.97763443       0.92858887
H       -3.39999199       1.45783997       1.33203316
H       -1.38333702       2.90449905       1.29065132
H        0.75968933       1.97244263       0.20790672
12
Properties=species:S:1:pos:R:3 name=BZ mapped_smiles="[c:1]1([H:7])[c:2]([H:8])[c:3]([H:9])[c:4]([H:10])[c:5]([H:11])[c:6]1[H:12]" pbc="F F F"
C        0.00000000       0.00000000       0.00000000
C        1.19292450       0.74496651       0.20524025
C        1.10994339       2.15626335       0.29500771
C       -0.13143921       2.84358406       0.24493599
C       -1.28108215       2.06760216      -0.00358391
C       -1.20381927       0.65608406      -0.06683159
H        0.04286194      -1.10905647      -0.03966331
H        2.16406250       0.23962593       0.22239876
H        2.03182220       2.73278618       0.31427193
H       -0.11946106       3.91409492       0.40783310
H       -2.22393799       2.59605598       0.02726173
H       -2.10725021      -0.05048180      -0.01177216
12
Properties=species:S:1:pos:R:3 name=BZ mapped_smiles="[c:1]1([H:7])[c:2]([H:8])[c:3]([H:9])[c:4]([H:10])[c:5]([H:11])[c:6]1[H:12]" pbc="F F F"
C        0.00000000       0.00000000       0.00000000
C        0.57279396       1.01201630      -0.76968384
C        1.11197281       0.77317047      -2.08131409
C        1.17666435      -0.56419373      -2.55123520
C        0.58048058      -1.56600952      -1.79326630
C        0.01645851      -1.32362366      -0.49086761
H       -0.37115097       0.17665863       1.04492569
H        0.39640427       2.03577423      -0.46040344
H        1.42361259       1.64308167      -2.74058914
H        1.60426140      -0.81188965      -3.52302170
H        0.72941971      -2.65164948      -2.11713791
H       -0.37023544      -2.24443054       0.01781082
12
Properties=species:S:1:pos:R:3 name=BZ mapped_smiles="[c:1]1([H:7])[c:2]([H:8])[c:3]([H:9])[c:4]([H:10])[c:5]([H:11])[c:6]1[H:12]" pbc="F F F"
C        0.00000000       0.00000000       0.00000000
C        0.39266586      -1.29948425      -0.29043007
C        1.53487396      -1.89229584       0.34300804
C        2.40827179      -1.02468491       1.02530670
C        1.99399185       0.30137253       1.36445618
C        0.76161194       0.76265335       0.81922531
H       -0.80106354       0.39328003      -0.63627434
H       -0.17095566      -2.01440811      -0.93333244
H        1.84790802      -2.95676804       0.16210747
H        3.35978317      -1.42917252       1.35507965
H        2.72723389       0.88406754       1.88824463
H        0.38596725       1.80173111       0.86751175
12
Properties=species:S:1:pos:R:3 name=BZ mapped_smiles="[c:1]1([H:7])[c:2]([H:8])[c:3]([H:9])[c:4]([H:10])[c:5]([H:11])[c:6]1[H:12]" pbc="F F F"
C        0.00000000       0.00000000       0.00000000
C        0.33702087       0.96615219       0.96966171
C        0.82862091       2.19345093       0.50771713
C        1.04680252       2.46556091      -0.85530281
C        0.70337296       1.47612762      -1.82769966
C        0.21865845       0.20682907      -1.37481689
H       -0.44581604      -0.93850708       0.32406616
H        0.14678192       0.70787430       2.00678635
H        1.03604889       2.95330048       1.25300217
H        1.47378922       3.44174194      -1.06376457
H        0.96249008       1.61780548      -2.86302185
H       -0.06867599      -0.56292343      -2.11191750
12
Properties=species:S:1:pos:R:3 name=BZ mapped_smiles="[c:1]1([H:7])[c:2]([H:8])[c:3]([H:9])[c:4]([H:10])[c:5]([H:11])[c:6]1[H:12]" pbc="F F F"
C        0.00000000       0.00000000       0.00000000
C        0.40172195       1.32304001      -0.13607597
C        1.73190308       1.68312836      -0.42021370
C        2.71235275       0.69011688      -0.58898544
C        2.35259247      -0.63204193      -0.44058037
C        1.00725555      -0.98432541      -0.18921089
H       -1.03183556      -0.26827240       0.19056702
H       -0.35787582       2.14192581       0.11350822
H        1.93440247       2.77052307      -0.51110268
H        3.72184372       0.94668198      -0.59911728
H        3.05943680      -1.41826630      -0.43335342
H        0.73345566      -2.02838516      -0.14124870
12
Properties=species:S:1:pos:R:3 name=BZ mapped_smiles="[c:1]1([H:7])[c:2]([H:8])[c:3]([H:9])[c:4]([H:10])[c:5]([H:11])[c:6]1[H:12]" pbc="F F F"
C        0.00000000       0.00000000       0.00000000
C        0.21129608       0.20072556       1.36684418
C        1.48160172      -0.07720375       1.92552185
C        2.56552887      -0.46210098       1.03205681
C        2.32816696      -0.57884407      -0.31184006
C        1.02410507      -0.43219948      -0.82304001
H       -0.97786713       0.10099030      -0.39595604
H       -0.62274170       0.46804619       1.97732925
H        1.74326324       0.09767342       2.94622421
H        3.53916550      -0.66698837       1.47305298
H        3.15750504      -0.83821106      -0.95147705
H        0.76351166      -0.69150543      -1.88179398
12
Properties=species:S:1:pos:R:3 name=BZ mapped_smiles="[c:1]1([H:7])[c:2]([H:8])[c:3]([H:9])[c:4]([H:10])[c:5]([H:11])[c:6]1[H:12]" pbc="F F F"
C        0.00000000       0.00000000       0.00000000
C       -1.20094872      -0.23061371       0.62762451
C       -1.97472954       0.82175446       0.99200821
C       -1.51153374       2.15316772       0.81324005
C       -0.32546043       2.38445282       0.22815704
C        0.47690964       1.30447769      -0.19144821
H        0.56821823      -0.83537674      -0.30451584
H       -1.44560051      -1.28608704       0.70553207
H       -2.91544151       0.74905777       1.50374603
H       -1.99918938       2.99141693       1.28128815
H       -0.01641273       3.39956284       0.13867950
H        1.40801620       1.47481918      -0.66471863
