12
Properties=species:S:1:pos:R:3 name=BZ mapped_smiles="[c:1]1([H:7])[c:2]([H:8])[c:3]([H:9])[c:4]([H:10])[c:5]([H:11])[c:6]1[H:12]" pbc="F F F"
C        3.84394455       1.68268585      -4.75347137
C        3.64311600       1.32343102      -3.41285706
C        3.75933838      -0.01322937      -3.04906845
C        4.03117371      -1.01384544      -3.98955917
C        4.29962921      -0.61792946      -5.31489944
C        4.14033127       0.71373177      -5.71262360
H        3.79572678       2.66262436      -5.05010986
H        3.37137985       2.09791565      -2.73578644
H        3.57805634      -0.35873795      -2.06916809
H        4.09210205      -2.05701256      -3.80925369
H        4.50654602      -1.34721947      -6.11511230
H        4.23038101       1.01228714      -6.76517868
12
Properties=species:S:1:pos:R:3 name=BZ mapped_smiles="[c:1]1([H:7])[c:2]([H:8])[c:3]([H:9])[c:4]([H:10])[c:5]([H:11])[c:6]1[H:12]" pbc="F F F"
C        5.96250153       0.22949600       1.59558105
C        5.12452698       1.30974579       1.95347214
C        4.80705261       2.29526520       1.03560638
C        5.18037796       2.10328674      -0.29569626
C        5.92013550       0.99259186      -0.65955734
C        6.35097122       0.08952332       0.25271988
H        6.17149353      -0.49113846       2.35160065
H        4.82728195       1.42737961       2.91799545
H        4.00813675       2.98099518       1.24083710
H        4.79138184       2.79231262      -1.00510025
H        6.20177460       0.87765884      -1.71232224
H        6.86874390      -0.82902908      -0.08901596
12
Properties=species:S:1:pos:R:3 name=BZ mapped_smiles="[c:1]1([H:7])[c:2]([H:8])[c:3]([H:9])[c:4]([H:10])[c:5]([H:11])[c:6]1[H:12]" pbc="F F F"
C        3.51652908      -2.66376877      -4.15866089
C        3.32851791      -2.72335434      -2.73491669
C        4.27902603      -3.37165451      -1.98351669
C        5.33563614      -4.02836227      -2.64492035
C        5.46393967      -4.00951004      -4.02037430
C        4.52760696      -3.30932236      -4.80447006
H        2.80868149      -2.06256485      -4.77551270
H        2.41986465      -2.31766129      -2.26324081
H        4.06074905      -3.52003860      -0.91125488
H        6.02169418      -4.67595291      -2.00347137
H        6.34895706      -4.44257736      -4.45334625
H        4.62467575      -3.25587082      -5.84972382
12
Properties=species:S:1:pos:R:3 name=BZ mapped_smiles="[c:1]1([H:7])[c:2]([H:8])[c:3]([H:9])[c:4]([H:10])[c:5]([H:11])[c:6]1[H:12]" pbc="F F F"
C        1.89167023       4.54820251     -10.04593277
C        2.62160873       5.75843811      -9.70310211
C        2.49934387       6.34852982      -8.46705627
C        1.61721802       5.74948120      -7.50358582
C        0.98271942       4.51713562      -7.81708908
C        1.10322571       3.90781403      -9.06019592
H        2.05398560       4.14520645     -11.02675247
H        3.31683350       6.17835236     -10.39446259
H        2.97719955       7.31542778      -8.20515060
H        1.39722061       6.19458389      -6.57381058
H        0.37720108       4.03402328      -7.03876114
H        0.62036896       2.96455765      -9.27440262
12
Properties=species:S:1:pos:R:3 name=BZ mapped_smiles="[c:1]1([H:7])[c:2]([H:8])[c:3]([H:9])[c:4]([H:10])[c:5]([H:11])[c:6]1[H:12]" pbc="F F F"
C       -1.32686615      -7.91396523      -8.73862076
C       -1.95432281      -9.13253593      -9.08441544
C       -1.68772125     -10.27919579      -8.33298111
C       -1.00940704     -10.09635735      -7.09675980
C       -0.43858337      -8.85530663      -6.72810745
C       -0.65342712      -7.68496895      -7.55300140
H       -1.55538177      -7.06993294      -9.42815781
H       -2.61641693      -9.15469933     -10.00322342
H       -2.08821869     -11.27196312      -8.60351181
H       -0.84328461     -10.84551048      -6.35469437
H        0.18234253      -8.78706551      -5.81941986
H       -0.30744171      -6.68200874      -7.32968903
12
Properties=species:S:1:pos:R:3 name=BZ mapped_smiles="[c:1]1([H:7])[c:2]([H:8])[c:3]([H:9])[c:4]([H:10])[c:5]([H:11])[c:6]1[H:12]" pbc="F F F"
C        0.04678154      -0.77579880       4.69728088
C        0.50255394      -0.88433838       6.04079819
C        0.11963081      -1.96691895       6.88256454
C       -0.68469620      -2.96616936       6.35388947
C       -1.23387718      -2.82631302       5.04948807
C       -0.87535095      -1.77131653       4.18597794
H        0.37777710       0.07292366       4.05456924
H        1.18117142      -0.14085579       6.37026215
H        0.42580986      -2.06924438       7.91528893
H       -1.04357910      -3.76067734       6.98950195
H       -1.93914604      -3.56020355       4.75715256
H       -1.23152161      -1.71557426       3.22189331
12
Properties=species:S:1:pos:R:3 name=BZ mapped_smiles="[c:1]1([H:7])[c:2]([H:8])[c:3]([H:9])[c:4]([H:10])[c:5]([H:11])[c:6]1[H:12]" pbc="F F F"
C        5.34955788      -0.60403633       4.16763306
C        5.88896179      -1.43025017       3.19789886
C        7.15653801      -1.14477348       2.69813156
C        7.78553963       0.07283974       2.95893097
C        7.24226189       0.93697166       3.91959000
C        6.05735779       0.63060951       4.53669739
H        4.37979889      -0.73343849       4.63532639
H        5.36873627      -2.31479454       2.86001587
H        7.59136772      -1.80996132       1.96450806
H        8.78414345       0.27548790       2.54338837
H        7.64577675       1.88351631       4.19515610
H        5.76252937       1.36086464       5.22568130
12
Properties=species:S:1:pos:R:3 name=BZ mapped_smiles="[c:1]1([H:7])[c:2]([H:8])[c:3]([H:9])[c:4]([H:10])[c:5]([H:11])[c:6]1[H:12]" pbc="F F F"
C       -9.05931091       4.77901840       3.45909119
C       -9.99912643       5.56466293       4.17152786
C      -10.75378132       4.98779678       5.16129684
C      -10.45116043       3.63144684       5.47380066
C       -9.49138927       2.87146378       4.87384033
C       -8.78134727       3.40855789       3.78488159
H       -8.58387184       5.19347382       2.63764572
H      -10.07077026       6.62140656       3.91978836
H      -11.46741676       5.65093231       5.70559692
H      -11.02476406       3.14599609       6.26110458
H       -9.41107368       1.80137253       5.19407654
H       -8.04700661       2.82649612       3.25182343
12
Properties=species:S:1:pos:R:3 name=BZ mapped_smiles="[c:1]1([H:7])[c:2]([H:8])[c:3]([H:9])[c:4]([H:10])[c:5]([H:11])[c:6]1[H:12]" pbc="F F F"
C       -6.08924103      -1.73572731      -6.01133537
C       -5.85137558      -2.73612976      -6.90513802
C       -4.56389236      -2.92572975      -7.49212837
C       -3.52293396      -2.02876472      -7.14972496
C       -3.72933578      -1.04982185      -6.09448814
C       -5.03471375      -0.88975525      -5.55572319
H       -7.18360901      -1.67405510      -5.74515724
H       -6.58924484      -3.42744446      -7.24246407
H       -4.28412628      -3.66371346      -8.20986748
H       -2.58596039      -2.19668388      -7.58282661
H       -2.93318558      -0.36611366      -5.75090981
H       -5.23149490      -0.07353401      -4.85370064
12
Properties=species:S:1:pos:R:3 name=BZ mapped_smiles="[c:1]1([H:7])[c:2]([H:8])[c:3]([H:9])[c:4]([H:10])[c:5]([H:11])[c:6]1[H:12]" pbc="F F F"
C        0.09793854       2.10864830       9.33755302
C        1.26419830       2.72990608       9.63227654
C        1.83378601       3.60121727       8.70155907
C        1.12106895       3.83142853       7.46756935
C       -0.13000679       3.21771812       7.22419167
C       -0.65348434       2.34035683       8.21320915
H       -0.22157288       1.38808632      10.10259819
H        1.73406410       2.52553368      10.55846977
H        2.73917770       4.11954117       8.74284935
H        1.45984650       4.55425262       6.73638344
H       -0.67786980       3.36336708       6.31767273
H       -1.62399864       1.76175690       8.04399681
12
Properties=species:S:1:pos:R:3 name=BZ mapped_smiles="[c:1]1([H:7])[c:2]([H:8])[c:3]([H:9])[c:4]([H:10])[c:5]([H:11])[c:6]1[H:12]" pbc="F F F"
C       -2.99699783      -2.95012283       3.48466682
C       -4.37349319      -2.99927139       2.94227219
C       -5.39281845      -3.57317734       3.67197418
C       -5.13409042      -4.18581390       4.91996193
C       -3.86498642      -4.17158127       5.48416710
C       -2.83197403      -3.52054596       4.75922775
H       -2.23217392      -2.40583801       3.00418282
H       -4.67068100      -2.58369446       1.97841644
H       -6.43170547      -3.59447098       3.30607414
H       -5.89978409      -4.73198700       5.38041496
H       -3.66631699      -4.75652313       6.41415787
H       -1.87194443      -3.43027115       5.19219017
12
Properties=species:S:1:pos:R:3 name=BZ mapped_smiles="[c:1]1([H:7])[c:2]([H:8])[c:3]([H:9])[c:4]([H:10])[c:5]([H:11])[c:6]1[H:12]" pbc="F F F"
C       -2.92809677       2.10665512       3.84252548
C       -2.53157425       1.31310272       4.88640976
C       -2.54784775      -0.09601212       4.76427078
C       -3.15875626      -0.66477966       3.61052704
C       -3.51885986       0.11804199       2.52600861
C       -3.44272232       1.54566193       2.67668915
H       -3.03341293       3.22088623       3.94851685
H       -2.20016861       1.64401627       5.81906128
H       -2.18170929      -0.72183228       5.54386139
H       -3.19594955      -1.73226547       3.58685303
H       -3.98582077      -0.24118042       1.60073471
H       -3.81148148       2.15637207       1.88278198
12
Properties=species:S:1:pos:R:3 name=BZ mapped_smiles="[c:1]1([H:7])[c:2]([H:8])[c:3]([H:9])[c:4]([H:10])[c:5]([H:11])[c:6]1[H:12]" pbc="F F F"
C       -5.64241791       1.50406837       3.38182831
C       -6.20235443       2.35676384       4.31639099
C       -7.58236694       2.43757439       4.49169922
C       -8.40526009       1.56475258       3.73421478
C       -7.85685349       0.67261314       2.83791351
C       -6.43411636       0.70717049       2.60501480
H       -4.57164383       1.50266075       3.13172150
H       -5.46296310       2.89210701       5.02700806
H       -8.00357437       3.09478188       5.27618408
H       -9.42978287       1.45745277       4.02845001
H       -8.38466072      -0.07581520       2.32872009
H       -5.98455811       0.05882454       1.82161331
12
Properties=species:S:1:pos:R:3 name=BZ mapped_smiles="[c:1]1([H:7])[c:2]([H:8])[c:3]([H:9])[c:4]([H:10])[c:5]([H:11])[c:6]1[H:12]" pbc="F F F"
C       -3.47117233      -2.99300766       1.04980469
C       -4.22803879      -3.53701782       2.08978653
C       -4.59437561      -2.71622086       3.15647888
C       -4.31226349      -1.32019806       3.15652657
C       -3.55418396      -0.77894592       2.16338348
C       -3.13995361      -1.57756805       1.07536697
H       -3.17308807      -3.59287262       0.16140366
H       -4.57999802      -4.56882095       2.05951118
H       -5.32403946      -3.11100006       3.90060997
H       -4.74509430      -0.70615005       3.90825272
H       -3.42821884       0.33346558       2.19449425
H       -2.68453979      -1.08898544       0.21209717
12
Properties=species:S:1:pos:R:3 name=BZ mapped_smiles="[c:1]1([H:7])[c:2]([H:8])[c:3]([H:9])[c:4]([H:10])[c:5]([H:11])[c:6]1[H:12]" pbc="F F F"
C       -2.06492424      -3.44728088      -0.69830322
C       -2.54240799      -4.06329346      -1.91975784
C       -2.50708580      -5.43712234      -2.10881042
C       -2.00416756      -6.20930099      -1.06236649
C       -1.55247307      -5.67284775       0.13857269
C       -1.60158920      -4.29585266       0.30722427
H       -2.02643394      -2.39063263      -0.51379013
H       -2.66605377      -3.42902374      -2.85926437
H       -2.79911613      -5.95973206      -3.02799225
H       -1.98414421      -7.34331512      -1.08707428
H       -1.08771324      -6.32783890       0.93324661
H       -1.27303123      -3.80015564       1.24946213
12
Properties=species:S:1:pos:R:3 name=BZ mapped_smiles="[c:1]1([H:7])[c:2]([H:8])[c:3]([H:9])[c:4]([H:10])[c:5]([H:11])[c:6]1[H:12]" pbc="F F F"
C       -7.43023300       3.57845688      -1.43659782
C       -6.48526001       2.54296494      -1.05728340
C       -5.42881012       2.88191986      -0.19509315
C       -5.34832001       4.14204788       0.38927650
C       -6.33152390       5.06810760       0.11071014
C       -7.36411667       4.84378433      -0.82647324
H       -8.27425003       3.39686584      -2.14826584
H       -6.37935257       1.55585098      -1.63764954
H       -4.61708832       2.19906616      -0.00695992
H       -4.53575134       4.34543991       1.06283379
H       -6.32308960       6.07216644       0.50392914
H       -8.10485840       5.59653473      -1.11849785
12
Properties=species:S:1:pos:R:3 name=BZ mapped_smiles="[c:1]1([H:7])[c:2]([H:8])[c:3]([H:9])[c:4]([H:10])[c:5]([H:11])[c:6]1[H:12]" pbc="F F F"
C        0.14062119      -3.81408882       4.59699440
C        0.01066208      -2.39636612       4.61164093
C       -0.82483292      -1.75046730       5.57070351
C       -1.50765228      -2.56896210       6.49483490
C       -1.29050064      -3.99080658       6.50564957
C       -0.47375870      -4.61163139       5.58687019
H        0.77124405      -4.27439117       3.88002777
H        0.62199783      -1.77782631       3.94212341
H       -1.02775955      -0.68783760       5.58823395
H       -2.29735565      -2.09136963       7.14285088
H       -1.82736588      -4.56280327       7.25546837
H       -0.31975937      -5.69917107       5.67541313
12
Properties=species:S:1:pos:R:3 name=BZ mapped_smiles="[c:1]1([H:7])[c:2]([H:8])[c:3]([H:9])[c:4]([H:10])[c:5]([H:11])[c:6]1[H:12]" pbc="F F F"
C        1.82187462       2.13532829      -6.42671776
C        0.88368416       1.21179771      -6.02573967
C        1.25450516      -0.09743309      -5.67903709
C        2.65362930      -0.43354225      -5.78971672
C        3.61739540       0.52306938      -6.23873711
C        3.19810486       1.84303093      -6.55683708
H        1.48736572       3.15826988      -6.65019798
H       -0.11024094       1.55266762      -5.84741020
H        0.55763054      -0.79178047      -5.27628136
H        2.92074203      -1.45936394      -5.48139000
H        4.68696022       0.28502846      -6.24142265
H        3.91053581       2.60524559      -6.83907890
12
Properties=species:S:1:pos:R:3 name=BZ mapped_smiles="[c:1]1([H:7])[c:2]([H:8])[c:3]([H:9])[c:4]([H:10])[c:5]([H:11])[c:6]1[H:12]" pbc="F F F"
C        5.15408516       4.81196785      -8.28489113
C        4.57104683       5.54812813      -7.21192741
C        3.17230034       5.59509087      -7.06083107
C        2.33532524       5.05392075      -8.07938957
C        2.86586761       4.47192192      -9.20065880
C        4.25546074       4.37605286      -9.26803398
H        6.25787163       4.87163734      -8.30968475
H        5.12286949       5.95775032      -6.37664223
H        2.66505623       6.06061363      -6.26105309
H        1.30121231       5.25161362      -8.01565742
H        2.29673195       4.26247597     -10.11237621
H        4.61559868       3.93294525     -10.18492889
12
Properties=species:S:1:pos:R:3 name=BZ mapped_smiles="[c:1]1([H:7])[c:2]([H:8])[c:3]([H:9])[c:4]([H:10])[c:5]([H:11])[c:6]1[H:12]" pbc="F F F"
C        0.94857788       2.47191811       6.64957809
C        0.46015167       1.52020454       7.57015038
C        1.04649734       0.19268227       7.58736229
C        2.09307861      -0.13861656       6.68631363
C        2.47859573       0.77913094       5.68748474
C        1.86097336       2.05247688       5.66217041
H        0.60441971       3.43033791       6.54259872
H       -0.31593704       1.85055733       8.27373314
H        0.66950989      -0.54390526       8.26062584
H        2.70815277      -1.01671410       6.89869308
H        3.20928574       0.56581306       4.89564896
H        2.10689926       2.76000404       4.85536575
12
Properties=species:S:1:pos:R:3 name=BZ mapped_smiles="[c:1]1([H:7])[c:2]([H:8])[c:3]([H:9])[c:4]([H:10])[c:5]([H:11])[c:6]1[H:12]" pbc="F F F"
C        3.06302452      -2.16810989     -10.16577530
C        3.09434891      -1.27102661      -9.04436111
C        2.39533424      -0.01916504      -9.15336037
C        1.52463722       0.25924683     -10.21320152
C        1.52557182      -0.57180786     -11.31354523
C        2.37265205      -1.69677353     -11.34983444
H        3.62311363      -3.11009598     -10.14290619
H        3.58434868      -1.50270462      -8.14134407
H        2.46239281       0.70283890      -8.31788254
H        0.92214203       1.08578873     -10.11717796
H        0.98853111      -0.25775146     -12.18337250
H        2.28195381      -2.31976509     -12.18718719
12
Properties=species:S:1:pos:R:3 name=BZ mapped_smiles="[c:1]1([H:7])[c:2]([H:8])[c:3]([H:9])[c:4]([H:10])[c:5]([H:11])[c:6]1[H:12]" pbc="F F F"
C       -5.42838287       4.55796432       5.22929764
C       -4.65914154       5.70608902       4.97724915
C       -4.71726799       6.41223145       3.76801682
C       -5.67389870       6.00812149       2.75871658
C       -6.57747078       4.95375061       3.10400391
C       -6.43162155       4.19844055       4.30872726
H       -5.47320366       4.04042816       6.17982101
H       -4.07985878       6.00707245       5.77899933
H       -4.16057777       7.31564140       3.79170609
H       -5.64849663       6.58494568       1.78932571
H       -7.27033234       4.60690308       2.25946426
H       -7.20889091       3.40126419       4.47100449
12
Properties=species:S:1:pos:R:3 name=BZ mapped_smiles="[c:1]1([H:7])[c:2]([H:8])[c:3]([H:9])[c:4]([H:10])[c:5]([H:11])[c:6]1[H:12]" pbc="F F F"
C       -8.63274956      -3.22257805       0.20646667
C       -8.10599327      -2.04999352      -0.36355209
C       -7.00229454      -2.04881096      -1.16992188
C       -6.37589836      -3.25030327      -1.51081467
C       -6.85310173      -4.45100975      -0.93725586
C       -7.97688103      -4.39898491      -0.13200378
H       -9.47404289      -3.21497154       0.88853455
H       -8.49174309      -1.01959229      -0.17273331
H       -6.58277702      -1.16697884      -1.61811829
H       -5.54135704      -3.31319237      -2.19713974
H       -6.29728508      -5.42558098      -1.18469620
H       -8.33607292      -5.32868004       0.29570389
12
Properties=species:S:1:pos:R:3 name=BZ mapped_smiles="[c:1]1([H:7])[c:2]([H:8])[c:3]([H:9])[c:4]([H:10])[c:5]([H:11])[c:6]1[H:12]" pbc="F F F"
C        1.23555946       5.52994919      -6.86065102
C        2.14381981       4.44391060      -7.08615685
C        2.11916161       3.72915840      -8.29715538
C        1.15578651       4.07885551      -9.29345703
C        0.19328880       5.11392021      -9.03269386
C        0.28748512       5.84873199      -7.82253456
H        1.22423744       6.10289955      -5.91132164
H        2.89491844       4.17220116      -6.34996605
H        2.78593636       2.92626953      -8.43900871
H        1.15571404       3.44791985     -10.16944313
H       -0.59636879       5.21581459      -9.76149559
H       -0.39433098       6.62925339      -7.66087723
12
Properties=species:S:1:pos:R:3 name=BZ mapped_smiles="[c:1]1([H:7])[c:2]([H:8])[c:3]([H:9])[c:4]([H:10])[c:5]([H:11])[c:6]1[H:12]" pbc="F F F"
C        2.31661987      -4.57862663      -2.53446770
C        1.37102127      -3.65747643      -3.12342644
C        1.21429062      -3.74213219      -4.46993828
C        1.74604416      -4.88078880      -5.16519737
C        2.70098495      -5.72503853      -4.55275154
C        2.99538803      -5.57032585      -3.24384117
H        2.38872910      -4.56677055      -1.49592018
H        0.69890213      -3.14308739      -2.49466515
H        0.50094604      -3.10774422      -4.95087624
H        1.49066544      -5.01292992      -6.23694801
H        3.32727432      -6.42629051      -5.11506081
H        3.72349930      -6.27145958      -2.72343636
12
Properties=species:S:1:pos:R:3 name=BZ mapped_smiles="[c:1]1([H:7])[c:2]([H:8])[c:3]([H:9])[c:4]([H:10])[c:5]([H:11])[c:6]1[H:12]" pbc="F F F"
C        0.61638641       4.78009415      -4.23759842
C       -0.52065659       5.14049149      -3.37833786
C       -1.77400017       5.11197662      -3.97336197
C       -1.94045067       5.01786423      -5.36877441
C       -0.80020905       4.71056747      -6.21140671
C        0.47796249       4.55469131      -5.63718796
H        1.58495712       4.77763367      -3.72857285
H       -0.41897964       5.31997681      -2.33848572
H       -2.71617699       5.40842438      -3.37190628
H       -2.94940758       5.05502319      -5.81881714
H       -0.89498901       4.60408783      -7.31725311
H        1.30058670       4.23541260      -6.21416855
12
Properties=species:S:1:pos:R:3 name=BZ mapped_smiles="[c:1]1([H:7])[c:2]([H:8])[c:3]([H:9])[c:4]([H:10])[c:5]([H:11])[c:6]1[H:12]" pbc="F F F"
C       -2.31654739       3.76536560      -7.05796242
C       -1.58787918       3.76838684      -5.84488487
C       -1.11206436       2.58031464      -5.30481148
C       -1.41519356       1.36621475      -5.97128868
C       -2.23798180       1.28592110      -7.09469795
C       -2.63192368       2.52392197      -7.68010902
H       -2.69333839       4.69853783      -7.49772835
H       -1.34675026       4.68608856      -5.28324318
H       -0.54270935       2.63858795      -4.40152931
H       -0.92973709       0.42712021      -5.58978844
H       -2.45538902       0.32964325      -7.59576797
H       -3.23192024       2.51827240      -8.61861420
12
Properties=species:S:1:pos:R:3 name=BZ mapped_smiles="[c:1]1([H:7])[c:2]([H:8])[c:3]([H:9])[c:4]([H:10])[c:5]([H:11])[c:6]1[H:12]" pbc="F F F"
C        6.64744759       3.49026871      -0.39020157
C        7.29232597       3.68471146      -1.62393570
C        7.39518929       4.90485764      -2.25513077
C        6.77532387       6.04512405      -1.64727783
C        6.23043633       5.85163498      -0.35787964
C        6.06542015       4.61066055       0.25691223
H        6.57525826       2.52360153       0.10617065
H        7.74523735       2.85226822      -2.12686920
H        7.90724754       5.04763412      -3.23146439
H        6.75120354       7.00551224      -2.12419510
H        5.81030083       6.73157120       0.18835449
H        5.59176445       4.58619308       1.23991013
12
Properties=species:S:1:pos:R:3 name=BZ mapped_smiles="[c:1]1([H:7])[c:2]([H:8])[c:3]([H:9])[c:4]([H:10])[c:5]([H:11])[c:6]1[H:12]" pbc="F F F"
C       -1.79135895     -10.93844414       2.62175751
C       -0.67316818     -10.37735558       2.00942993
C        0.04415512      -9.34613609       2.65069580
C       -0.51140976      -8.84937096       3.82256317
C       -1.59573364      -9.50925255       4.46007919
C       -2.29725647     -10.51365471       3.85169220
H       -2.18348694     -11.80885124       2.06599426
H       -0.44551468     -10.81142235       1.02592087
H        0.94015503      -8.88225365       2.18544006
H       -0.02864456      -8.08098412       4.33374023
H       -1.96802902      -9.09806633       5.35648346
H       -3.15514755     -10.96968651       4.29328918
12
Properties=species:S:1:pos:R:3 name=BZ mapped_smiles="[c:1]1([H:7])[c:2]([H:8])[c:3]([H:9])[c:4]([H:10])[c:5]([H:11])[c:6]1[H:12]" pbc="F F F"
C        6.26566505      -3.32017136       4.52125549
C        5.40091133      -2.45023727       5.13200378
C        4.55123520      -1.66706467       4.32746124
C        4.56088448      -1.79909897       2.96127319
C        5.41974831      -2.63598251       2.30453491
C        6.20929909      -3.52626419       3.12842178
H        6.87858772      -4.06159592       5.09244156
H        5.33885956      -2.39726639       6.29199600
H        3.71689415      -1.13021469       4.78792191
H        3.79424858      -1.29191208       2.27065659
H        5.41000557      -2.64891434       1.21409607
H        6.71842003      -4.34916306       2.66641617
12
Properties=species:S:1:pos:R:3 name=BZ mapped_smiles="[c:1]1([H:7])[c:2]([H:8])[c:3]([H:9])[c:4]([H:10])[c:5]([H:11])[c:6]1[H:12]" pbc="F F F"
C        0.87964630      -4.02624130       2.36611366
C        1.01940155      -4.79183578       3.54263496
C        0.57230759      -4.29759216       4.75629616
C        0.00742340      -3.02536392       4.84536171
C       -0.12783813      -2.23912048       3.69729042
C        0.31997681      -2.68693542       2.47290993
H        1.16788864      -4.40888214       1.43842125
H        1.43971252      -5.79170609       3.41483498
H        0.61784744      -4.84966660       5.69504356
H       -0.37041473      -2.64553833       5.80046654
H       -0.54589462      -1.23537827       3.76049614
H        0.26067352      -2.16027832       1.59609032
12
Properties=species:S:1:pos:R:3 name=BZ mapped_smiles="[c:1]1([H:7])[c:2]([H:8])[c:3]([H:9])[c:4]([H:10])[c:5]([H:11])[c:6]1[H:12]" pbc="F F F"
C        1.77510834       7.56772423       3.66604996
C        1.51267242       8.69712639       4.46738052
C        1.55532837       9.95438957       3.89022827
C        1.64003754      10.10291100       2.50266266
C        1.81141281       8.92358208       1.63700485
C        1.84786224       7.64327049       2.26568222
H        1.83794785       6.54685974       4.07582855
H        1.22429276       8.54741478       5.49122238
H        1.35109711      10.81096458       4.56334686
H        1.52545929      11.12786674       2.04975891
H        1.85144043       9.00400352       0.58610153
H        2.08010483       6.73556900       1.76454163
12
Properties=species:S:1:pos:R:3 name=BZ mapped_smiles="[c:1]1([H:7])[c:2]([H:8])[c:3]([H:9])[c:4]([H:10])[c:5]([H:11])[c:6]1[H:12]" pbc="F F F"
C       -0.46389771       3.54172897      -4.70585823
C       -0.80269241       3.49024582      -3.30848503
C       -1.08220291       2.20809174      -2.78482628
C       -1.11438370       1.06203079      -3.56192589
C       -0.66782761       1.06083679      -4.83472633
C       -0.41731644       2.31749725      -5.52132225
H       -0.21121979       4.46164322      -5.18263817
H       -0.82669067       4.37625122      -2.76712227
H       -1.41564560       2.13929749      -1.75166130
H       -1.36272812       0.16136169      -3.03726387
H       -0.45923996       0.12895584      -5.27256203
H       -0.09776688       2.36878967      -6.51412773
12
Properties=species:S:1:pos:R:3 name=BZ mapped_smiles="[c:1]1([H:7])[c:2]([H:8])[c:3]([H:9])[c:4]([H:10])[c:5]([H:11])[c:6]1[H:12]" pbc="F F F"
C       -5.15427780      -3.42580605       3.65018654
C       -4.82272339      -4.51910210       2.81554985
C       -3.74132538      -4.30887604       1.91807747
C       -3.01519394      -3.06921577       1.81662941
C       -3.47825623      -2.01695061       2.64190292
C       -4.56312943      -2.14404869       3.54025841
H       -5.90929031      -3.62795830       4.44043922
H       -5.35078812      -5.52026558       2.75813866
H       -3.30764008      -5.14372444       1.36234093
H       -2.13185120      -2.92627335       1.16247368
H       -2.98630524      -1.03810310       2.62957573
H       -4.76135254      -1.29010963       4.29040337
12
Properties=species:S:1:pos:R:3 name=BZ mapped_smiles="[c:1]1([H:7])[c:2]([H:8])[c:3]([H:9])[c:4]([H:10])[c:5]([H:11])[c:6]1[H:12]" pbc="F F F"
C       -2.66612434       0.87266350      -3.95831680
C       -2.39163208       2.28825569      -4.05102158
C       -3.05068779       2.96297264      -5.11151886
C       -3.87079811       2.27861977      -6.05041504
C       -4.08125687       0.92500496      -5.96644974
C       -3.49237633       0.23378563      -4.93319321
H       -2.31195641       0.25899696      -3.10337067
H       -1.70874786       2.77743912      -3.34039307
H       -2.83707809       4.02721596      -5.16717148
H       -4.37002754       2.83891678      -6.87019730
H       -4.76196671       0.43986320      -6.76463318
H       -3.64975166      -0.75549698      -4.94671631
12
Properties=species:S:1:pos:R:3 name=BZ mapped_smiles="[c:1]1([H:7])[c:2]([H:8])[c:3]([H:9])[c:4]([H:10])[c:5]([H:11])[c:6]1[H:12]" pbc="F F F"
C        1.62152100      -5.82245636      -0.59038353
C        0.77985573      -5.24423981      -1.62076950
C       -0.60005188      -5.63567734      -1.63842964
C       -1.03657722      -6.65178680      -0.78240967
C       -0.18598175      -7.21237183       0.21913528
C        1.13326836      -6.76247787       0.33169365
H        2.68814468      -5.56256104      -0.46846962
H        1.12839699      -4.47805786      -2.27278709
H       -1.26346016      -5.22751999      -2.39230156
H       -2.01502228      -7.13659286      -0.82136726
H       -0.62151527      -7.88594055       0.95593071
H        1.86521721      -7.10041428       1.05406952
12
Properties=species:S:1:pos:R:3 name=BZ mapped_smiles="[c:1]1([H:7])[c:2]([H:8])[c:3]([H:9])[c:4]([H:10])[c:5]([H:11])[c:6]1[H:12]" pbc="F F F"
C       -0.03370285       6.70074844      -2.86835289
C       -0.21162796       5.39573288      -3.26885223
C       -0.26277924       5.03959656      -4.63989449
C       -0.08260727       5.98658371      -5.62483597
C        0.02701187       7.35873222      -5.21936226
C        0.00808716       7.69912529      -3.83183098
H        0.13158417       6.98129654      -1.82708168
H       -0.27136612       4.61307907      -2.48803520
H       -0.48299408       3.95207214      -4.85265923
H       -0.14109802       5.65127945      -6.68519211
H        0.08823013       8.14564323      -5.95756340
H       -0.03466797       8.69959068      -3.58423042
12
Properties=species:S:1:pos:R:3 name=BZ mapped_smiles="[c:1]1([H:7])[c:2]([H:8])[c:3]([H:9])[c:4]([H:10])[c:5]([H:11])[c:6]1[H:12]" pbc="F F F"
C        1.51179695      -2.28400040      -7.05545425
C        0.61514091      -2.01736450      -6.04976273
C        1.03951645      -1.95537567      -4.71226311
C        2.41683006      -2.01954651      -4.43679047
C        3.33798790      -2.26071930      -5.49895859
C        2.89286423      -2.42041206      -6.75371361
H        1.19662285      -2.21528053      -8.08027458
H       -0.45995140      -1.97303391      -6.26413345
H        0.33951569      -1.96599579      -3.94754982
H        2.74734879      -2.00104904      -3.42653656
H        4.43222618      -2.28336143      -5.33079910
H        3.59792519      -2.62708092      -7.52129364
12
Properties=species:S:1:pos:R:3 name=BZ mapped_smiles="[c:1]1([H:7])[c:2]([H:8])[c:3]([H:9])[c:4]([H:10])[c:5]([H:11])[c:6]1[H:12]" pbc="F F F"
C       -4.04463196      -0.67650795       2.49307823
C       -4.43992996       0.23587608       1.53429794
C       -4.46855164       1.62837029       1.83420753
C       -4.00318909       2.02042961       3.15334892
C       -3.63693619       1.10682487       4.12470627
C       -3.65328979      -0.22526741       3.78461075
H       -3.99777985      -1.70376015       2.35457039
H       -4.74150085      -0.22644234       0.57507896
H       -4.81175613       2.37136650       1.05185699
H       -3.96525955       3.07285118       3.43818283
H       -3.22586823       1.37753105       5.11692619
H       -3.22755432      -0.88434792       4.52308846
12
Properties=species:S:1:pos:R:3 name=BZ mapped_smiles="[c:1]1([H:7])[c:2]([H:8])[c:3]([H:9])[c:4]([H:10])[c:5]([H:11])[c:6]1[H:12]" pbc="F F F"
C       -5.70978355       3.96173477       0.16889572
C       -6.91902733       4.25839615       0.70922279
C       -7.47324944       3.52383804       1.71646500
C       -6.83907127       2.32738113       2.11025047
C       -5.59879875       1.96380234       1.52227974
C       -5.01383781       2.83252335       0.59957695
H       -5.29261589       4.62514114      -0.58879662
H       -7.57485008       5.04793930       0.34248924
H       -8.48493767       3.70031357       2.06208420
H       -7.28593254       1.59782028       2.78805351
H       -5.26949120       0.97694016       1.72616577
H       -4.08989525       2.49856186       0.05634499
