12
Properties=species:S:1:pos:R:3 name=BZ mapped_smiles="[c:1]1([H:7])[c:2]([H:8])[c:3]([H:9])[c:4]([H:10])[c:5]([H:11])[c:6]1[H:12]" pbc="F F F"
C        0.70684433      -4.66279030       0.04956055
C        0.71166611      -4.01071930       1.26500320
C        1.76247025      -3.03147507       1.50968933
C        2.82487869      -2.81749344       0.59924698
C        2.68457413      -3.39323616      -0.67123413
C        1.62629318      -4.25748062      -0.97794724
H       -0.01388931      -5.45513916      -0.07271957
H        0.02476120      -4.26795769       2.10351944
H        1.81733322      -2.66278648       2.49267578
H        3.69797516      -2.26168633       0.87764359
H        3.37210846      -3.16469955      -1.47101212
H        1.66430283      -4.77958679      -1.96607590
12
Properties=species:S:1:pos:R:3 name=BZ mapped_smiles="[c:1]1([H:7])[c:2]([H:8])[c:3]([H:9])[c:4]([H:10])[c:5]([H:11])[c:6]1[H:12]" pbc="F F F"
C       -3.65960503       5.97211456       2.81194305
C       -2.30274963       5.80739594       2.45330429
C       -1.32495499       6.47405243       3.24443436
C       -1.67350388       7.17355156       4.37906647
C       -2.93976974       7.22023582       4.79279327
C       -3.92259216       6.58015060       4.05645752
H       -4.46569443       5.53301239       2.20596695
H       -1.98871994       5.16273880       1.57878113
H       -0.29233170       6.41969299       2.95577621
H       -0.80432510       7.55840874       4.98127747
H       -3.17413902       7.67688560       5.79231262
H       -4.95124817       6.58120346       4.44467926
12
Properties=species:S:1:pos:R:3 name=BZ mapped_smiles="[c:1]1([H:7])[c:2]([H:8])[c:3]([H:9])[c:4]([H:10])[c:5]([H:11])[c:6]1[H:12]" pbc="F F F"
C       -0.20190811      -8.68554306       4.02538681
C       -0.12357712      -7.24219131       3.88031006
C        0.71850967      -6.77747726       2.84986496
C        1.35891342      -7.64538193       1.92222977
C        1.26649094      -9.02225113       2.12590408
C        0.52528763      -9.55630875       3.18650818
H       -0.73703384      -9.06900024       4.85090256
H       -0.61256027      -6.57856369       4.53382111
H        0.76450729      -5.73722076       2.78061295
H        1.90140152      -7.24069595       1.13820267
H        1.82706833      -9.72130203       1.44424820
H        0.47990799     -10.59001923       3.38826370
12
Properties=species:S:1:pos:R:3 name=BZ mapped_smiles="[c:1]1([H:7])[c:2]([H:8])[c:3]([H:9])[c:4]([H:10])[c:5]([H:11])[c:6]1[H:12]" pbc="F F F"
C       -3.46617699       2.49594879      -9.25878525
C       -4.23919868       3.37432861      -8.45481873
C       -3.91217804       3.68507385      -7.13283539
C       -2.68920326       3.26819611      -6.67414856
C       -1.88021469       2.49452591      -7.52498245
C       -2.25516510       2.01873016      -8.77633667
H       -3.88114166       2.15213013     -10.18466949
H       -5.22846031       3.77171326      -8.78501129
H       -4.63019943       4.27448654      -6.55380249
H       -2.31620407       3.39564896      -5.62404251
H       -0.90767670       2.26237869      -7.11169434
H       -1.68364525       1.34862900      -9.38847733
12
Properties=species:S:1:pos:R:3 name=BZ mapped_smiles="[c:1]1([H:7])[c:2]([H:8])[c:3]([H:9])[c:4]([H:10])[c:5]([H:11])[c:6]1[H:12]" pbc="F F F"
C        0.58340645      -7.08696938       0.73659515
C        1.12153053      -8.38003349       0.75101471
C        2.13384819      -8.68980408      -0.10690308
C        2.84562874      -7.69465065      -0.75664520
C        2.35046768      -6.35000038      -0.83181763
C        1.13623619      -6.14504814      -0.11343002
H       -0.31218910      -6.89008713       1.36059189
H        0.54308701      -9.07644463       1.24752045
H        2.57773590      -9.73386192      -0.07207489
H        3.73607826      -7.89203835      -1.36475372
H        2.81285477      -5.57176208      -1.41669846
H        0.75117874      -5.12813377      -0.10136795
12
Properties=species:S:1:pos:R:3 name=BZ mapped_smiles="[c:1]1([H:7])[c:2]([H:8])[c:3]([H:9])[c:4]([H:10])[c:5]([H:11])[c:6]1[H:12]" pbc="F F F"
C        1.96858788      -4.08288002       1.56233597
C        2.09005547      -2.70212936       1.67469025
C        3.31168365      -2.08495712       1.98353195
C        4.48987770      -2.85426331       2.11859131
C        4.42541885      -4.25271797       2.01683426
C        3.14526176      -4.83873177       1.71604919
H        0.99678040      -4.50525475       1.50981140
H        1.22488022      -2.08692360       1.60293579
H        3.34285355      -1.03735352       2.10962677
H        5.45400047      -2.33193398       2.30699158
H        5.35400963      -4.88775063       2.12479401
H        2.89392471      -5.91181755       1.44276428
12
Properties=species:S:1:pos:R:3 name=BZ mapped_smiles="[c:1]1([H:7])[c:2]([H:8])[c:3]([H:9])[c:4]([H:10])[c:5]([H:11])[c:6]1[H:12]" pbc="F F F"
C        4.98814201       2.44057083       0.39038086
C        4.96059608       3.35121155       1.44377899
C        3.80217743       4.14580917       1.55878448
C        2.65983963       3.98590469       0.64454651
C        2.75918961       3.05695534      -0.37337494
C        3.86354065       2.22167397      -0.43000793
H        5.91816139       1.88738060       0.17851257
H        5.83130074       3.39578247       2.10680008
H        3.75509834       4.81627464       2.36719131
H        1.80102539       4.57460594       0.81237030
H        1.97165680       2.93491554      -1.11994743
H        3.92180443       1.42365837      -1.18871117
12
Properties=species:S:1:pos:R:3 name=BZ mapped_smiles="[c:1]1([H:7])[c:2]([H:8])[c:3]([H:9])[c:4]([H:10])[c:5]([H:11])[c:6]1[H:12]" pbc="F F F"
C       -4.39006805      -0.44787979      -4.87436867
C       -4.78837204       0.58113480      -5.68211555
C       -5.52837372       1.68096542      -5.15515518
C       -5.64531517       1.80056763      -3.81948090
C       -5.24987030       0.72087479      -2.98608208
C       -4.62714195      -0.40395546      -3.50939369
H       -3.87528229      -1.27587891      -5.28849792
H       -4.57655716       0.56553078      -6.77964211
H       -5.75446129       2.51728439      -5.79937172
H       -6.13706779       2.63671875      -3.39454651
H       -5.14847946       0.86737442      -1.92435837
H       -4.13106537      -1.21482277      -2.95287323
12
Properties=species:S:1:pos:R:3 name=BZ mapped_smiles="[c:1]1([H:7])[c:2]([H:8])[c:3]([H:9])[c:4]([H:10])[c:5]([H:11])[c:6]1[H:12]" pbc="F F F"
C       -1.47975159       3.09210396      -7.61783600
C       -0.51723480       4.11142159      -7.41707611
C        0.55915070       3.79372597      -6.58084679
C        0.64070129       2.55887413      -5.87345314
C       -0.32579041       1.55512810      -6.19528961
C       -1.43535614       1.84110069      -7.05715942
H       -2.33385086       3.31895065      -8.27085304
H       -0.59095764       5.09323311      -7.91392708
H        1.41126251       4.51984406      -6.51946831
H        1.55528259       2.36307335      -5.19564629
H       -0.22209167       0.57254219      -5.78543663
H       -2.08255386       1.07061195      -7.44752884
12
Properties=species:S:1:pos:R:3 name=BZ mapped_smiles="[c:1]1([H:7])[c:2]([H:8])[c:3]([H:9])[c:4]([H:10])[c:5]([H:11])[c:6]1[H:12]" pbc="F F F"
C       -0.11117935       6.94402313       4.09886169
C       -1.06202126       5.95714951       3.83325005
C       -0.63838768       4.66256714       3.64964867
C        0.70669174       4.31813431       3.76587105
C        1.66242599       5.32684326       3.98887444
C        1.27729797       6.67767715       4.14289284
H       -0.51159859       7.92213249       4.24834824
H       -2.12965584       6.24601364       3.61422729
H       -1.40752220       3.84501266       3.39618683
H        1.08277893       3.35079575       3.57604027
H        2.76977158       5.11593628       3.95655060
H        1.99315453       7.43552208       4.28911972
12
Properties=species:S:1:pos:R:3 name=BZ mapped_smiles="[c:1]1([H:7])[c:2]([H:8])[c:3]([H:9])[c:4]([H:10])[c:5]([H:11])[c:6]1[H:12]" pbc="F F F"
C        4.64251328       1.03188705       3.45768356
C        3.96924591      -0.09437370       3.81915665
C        3.50855255      -0.88565636       2.79127312
C        3.68997574      -0.60212135       1.41398811
C        4.44487000       0.55950356       1.10129356
C        4.86982727       1.39092636       2.08954048
H        4.95401382       1.63747597       4.34572411
H        3.80381393      -0.29082870       4.86684990
H        2.91351318      -1.76032639       3.07269478
H        3.43909073      -1.23213005       0.60010529
H        4.76244736       0.68509102       0.07402802
H        5.46112061       2.30199623       1.85838318
12
Properties=species:S:1:pos:R:3 name=BZ mapped_smiles="[c:1]1([H:7])[c:2]([H:8])[c:3]([H:9])[c:4]([H:10])[c:5]([H:11])[c:6]1[H:12]" pbc="F F F"
C       -0.41086197       6.08147240       5.50504303
C       -1.69838715       6.58257484       5.09600067
C       -2.12795639       6.24734688       3.81687927
C       -1.31888199       5.42862892       2.97246170
C       -0.07659531       5.03743744       3.32052231
C        0.41402054       5.36233330       4.58059692
H       -0.09942245       6.26809883       6.47793961
H       -2.30335617       7.20031548       5.78214645
H       -3.11418152       6.58804703       3.59172058
H       -1.78129196       5.14824486       2.07272339
H        0.41999054       4.33032036       2.68476868
H        1.40980911       4.97681999       4.87149048
12
Properties=species:S:1:pos:R:3 name=BZ mapped_smiles="[c:1]1([H:7])[c:2]([H:8])[c:3]([H:9])[c:4]([H:10])[c:5]([H:11])[c:6]1[H:12]" pbc="F F F"
C       -7.52967453       6.98515511       5.66890144
C       -7.93927765       7.87526512       6.64018059
C       -9.26003838       7.92544365       7.04307365
C      -10.22417068       7.15955925       6.36985207
C       -9.83820915       6.23365974       5.39160728
C       -8.46116829       6.07792473       5.12769699
H       -6.48958969       6.94319344       5.35745049
H       -7.28451157       8.64356422       6.94225693
H       -9.63772964       8.51171684       7.83885765
H      -11.30160713       7.22443199       6.63948822
H      -10.56115532       5.68271446       4.74922752
H       -8.16527176       5.47018623       4.30444717
12
Properties=species:S:1:pos:R:3 name=BZ mapped_smiles="[c:1]1([H:7])[c:2]([H:8])[c:3]([H:9])[c:4]([H:10])[c:5]([H:11])[c:6]1[H:12]" pbc="F F F"
C       -2.60335541      -2.49018478      -2.67232132
C       -2.49417877      -3.73473740      -3.36829376
C       -3.47993851      -4.01798630      -4.30452919
C       -4.56214142      -3.15595627      -4.49589157
C       -4.74324417      -2.00621033      -3.67001915
C       -3.75198746      -1.62184906      -2.77260017
H       -1.79259491      -2.17351913      -2.01892090
H       -1.67217255      -4.44372559      -3.18826675
H       -3.39406967      -4.95286942      -4.81858826
H       -5.29170990      -3.52542496      -5.22167587
H       -5.68390274      -1.45624542      -3.75343513
H       -3.83683395      -0.73268509      -2.13331032
12
Properties=species:S:1:pos:R:3 name=BZ mapped_smiles="[c:1]1([H:7])[c:2]([H:8])[c:3]([H:9])[c:4]([H:10])[c:5]([H:11])[c:6]1[H:12]" pbc="F F F"
C        4.08509636      -1.33724213      -4.72558403
C        3.06651878      -1.77073288      -3.84701347
C        3.32068443      -1.67228699      -2.45561028
C        4.40638542      -0.96015167      -1.99525833
C        5.42308617      -0.52977371      -2.86326981
C        5.32783318      -0.81183624      -4.31131554
H        3.92485619      -1.35686493      -5.85511589
H        2.18699455      -2.30013275      -4.16562462
H        2.63754845      -2.15842819      -1.76070976
H        4.56590080      -0.92760086      -0.90963173
H        6.32620049      -0.16223907      -2.40018654
H        6.21176720      -0.45620728      -5.00254631
12
Properties=species:S:1:pos:R:3 name=BZ mapped_smiles="[c:1]1([H:7])[c:2]([H:8])[c:3]([H:9])[c:4]([H:10])[c:5]([H:11])[c:6]1[H:12]" pbc="F F F"
C       -1.81893539      -3.20571899      -3.16101265
C       -2.78654861      -3.15527344      -4.09928513
C       -3.78276825      -4.18206787      -4.25379753
C       -3.81186676      -5.22051239      -3.29521751
C       -2.92091370      -5.19986725      -2.21735001
C       -1.91371918      -4.22051239      -2.17141151
H       -1.04895782      -2.44324493      -3.12360954
H       -2.79651260      -2.32909393      -4.85718727
H       -4.58083725      -4.07039642      -4.98759651
H       -4.59908295      -5.93762970      -3.35476303
H       -3.06118393      -5.93373108      -1.40244102
H       -1.20847321      -4.25493622      -1.36472511
12
Properties=species:S:1:pos:R:3 name=BZ mapped_smiles="[c:1]1([H:7])[c:2]([H:8])[c:3]([H:9])[c:4]([H:10])[c:5]([H:11])[c:6]1[H:12]" pbc="F F F"
C       -2.95053101       0.31444168       8.55460930
C       -3.83437729       0.89621162       9.50457573
C       -3.21319962       1.44911194      10.62781715
C       -1.75311661       1.53420258      10.72910881
C       -0.94511795       0.98492622       9.70119667
C       -1.57480240       0.42590714       8.62127495
H       -3.31094360      -0.12125778       7.61183739
H       -4.91091156       0.85735512       9.49459648
H       -3.76080704       1.98176384      11.35952187
H       -1.29534531       1.96038437      11.53097343
H        0.12747955       0.84717369       9.75586510
H       -0.86664200       0.16143990       7.83390617
12
Properties=species:S:1:pos:R:3 name=BZ mapped_smiles="[c:1]1([H:7])[c:2]([H:8])[c:3]([H:9])[c:4]([H:10])[c:5]([H:11])[c:6]1[H:12]" pbc="F F F"
C       -1.16691971       0.85582542      -9.31191063
C       -1.19426346       1.11569023     -10.68669701
C       -1.70612907       0.06577873     -11.58463097
C       -2.15240288      -1.14033318     -11.07987785
C       -2.13442802      -1.31911659      -9.65348625
C       -1.66976738      -0.31270027      -8.79028893
H       -0.71964264       1.54249382      -8.57031059
H       -0.87485504       2.00982475     -11.20538139
H       -1.82913780       0.23129845     -12.69249535
H       -2.53805161      -1.90422249     -11.74297142
H       -2.59652710      -2.25849342      -9.18720818
H       -1.66905785      -0.55462074      -7.69652367
12
Properties=species:S:1:pos:R:3 name=BZ mapped_smiles="[c:1]1([H:7])[c:2]([H:8])[c:3]([H:9])[c:4]([H:10])[c:5]([H:11])[c:6]1[H:12]" pbc="F F F"
C        0.57787895       8.38455009       0.42327118
C        1.31496620       7.35001183       1.13394928
C        1.34924126       6.06440353       0.60511780
C        0.80825233       5.82902908      -0.63088226
C        0.10714149       6.80034256      -1.31791306
C       -0.01787758       8.07447624      -0.78894043
H        0.51529121       9.43742943       0.79811859
H        1.70692253       7.59606743       2.07838440
H        1.83932686       5.29646111       1.09545135
H        0.85392189       4.84044838      -1.13343048
H       -0.36610985       6.56248474      -2.28791809
H       -0.55682182       8.82644463      -1.28441620
12
Properties=species:S:1:pos:R:3 name=BZ mapped_smiles="[c:1]1([H:7])[c:2]([H:8])[c:3]([H:9])[c:4]([H:10])[c:5]([H:11])[c:6]1[H:12]" pbc="F F F"
C        2.24091339       6.08140373       5.71820450
C        1.13558578       6.50163078       6.40110016
C        0.98620605       7.80863380       6.79189301
C        1.98522186       8.72254372       6.39440155
C        3.18065262       8.27371025       5.76650620
C        3.27810669       6.92082405       5.36045837
H        2.28155136       5.01045799       5.46861649
H        0.43043518       5.79281425       6.72081375
H        0.15110779       8.13772011       7.40120506
H        1.90821075       9.71629906       6.70489883
H        3.99672699       8.89926720       5.47239304
H        4.16201401       6.51801491       4.86693954
12
Properties=species:S:1:pos:R:3 name=BZ mapped_smiles="[c:1]1([H:7])[c:2]([H:8])[c:3]([H:9])[c:4]([H:10])[c:5]([H:11])[c:6]1[H:12]" pbc="F F F"
C        8.14069176      -1.25804901      -2.36706924
C        7.05979538      -2.00188828      -1.91851807
C        5.78484154      -1.47541237      -1.66684341
C        5.52522087      -0.12533951      -2.01549149
C        6.58456993       0.63919067      -2.45362091
C        7.90076256       0.16821671      -2.63753128
H        9.07330894      -1.82148933      -2.49360275
H        7.31490898      -3.07349586      -1.72644806
H        4.98101616      -2.18928909      -1.29967880
H        4.47204399       0.23006058      -1.81473923
H        6.35416603       1.68329239      -2.77134705
H        8.62771416       0.86737442      -2.97238541
12
Properties=species:S:1:pos:R:3 name=BZ mapped_smiles="[c:1]1([H:7])[c:2]([H:8])[c:3]([H:9])[c:4]([H:10])[c:5]([H:11])[c:6]1[H:12]" pbc="F F F"
C       -3.80573654      -3.29381943       3.55806351
C       -5.05396652      -2.79170227       3.09571075
C       -5.84154129      -3.46735001       2.19519043
C       -5.40459824      -4.67870712       1.62699127
C       -4.14364243      -5.13180923       1.95109940
C       -3.33147049      -4.45578384       2.90108109
H       -3.27391434      -2.87004471       4.37249374
H       -5.45708084      -1.88517761       3.60825729
H       -6.84275436      -3.05137253       1.92819595
H       -6.02353287      -5.20386505       0.90851593
H       -3.77891159      -6.05764008       1.55904007
H       -2.41313553      -4.97447586       3.23899460
12
Properties=species:S:1:pos:R:3 name=BZ mapped_smiles="[c:1]1([H:7])[c:2]([H:8])[c:3]([H:9])[c:4]([H:10])[c:5]([H:11])[c:6]1[H:12]" pbc="F F F"
C       -5.71910667       0.44031906       0.09774399
C       -6.56650352       1.44296646      -0.34889412
C       -6.13403893       2.09603119      -1.55460739
C       -4.97932243       1.77144623      -2.25850868
C       -4.08383179       0.77824020      -1.65015602
C       -4.56613922       0.02388000      -0.58931923
H       -5.97943687      -0.20804977       0.96000290
H       -7.53385735       1.74637985       0.14232826
H       -6.82609367       2.83019257      -1.85656166
H       -4.67585754       2.36997986      -3.09765053
H       -3.16558456       0.47792816      -2.16452980
H       -4.00526810      -0.87299347      -0.26877975
12
Properties=species:S:1:pos:R:3 name=BZ mapped_smiles="[c:1]1([H:7])[c:2]([H:8])[c:3]([H:9])[c:4]([H:10])[c:5]([H:11])[c:6]1[H:12]" pbc="F F F"
C       -1.16464615       6.66435051      -0.91232300
C       -1.60103989       7.71651268      -0.11357498
C       -1.13963318       7.78041649       1.18997192
C       -0.12893486       6.89408684       1.58965302
C        0.36554527       5.90077782       0.69114304
C       -0.21039581       5.74843407      -0.57134628
H       -1.54713249       6.64159203      -1.91905594
H       -2.40916443       8.39639091      -0.41784286
H       -1.51186943       8.65645409       1.78750229
H        0.29572105       6.90450096       2.62982178
H        1.18166924       5.27312279       1.00107193
H        0.18461037       4.96500969      -1.21446991
12
Properties=species:S:1:pos:R:3 name=BZ mapped_smiles="[c:1]1([H:7])[c:2]([H:8])[c:3]([H:9])[c:4]([H:10])[c:5]([H:11])[c:6]1[H:12]" pbc="F F F"
C       -3.13986206      -2.09082413       4.29105568
C       -2.00608444      -1.56786346       3.73002815
C       -1.03181839      -2.43069458       3.29688072
C       -1.14616776      -3.85273933       3.41920662
C       -2.27421951      -4.42888451       3.99493217
C       -3.20234299      -3.51124191       4.46067429
H       -3.99726486      -1.45358086       4.59356880
H       -1.78024292      -0.55011940       3.55480385
H       -0.10329056      -1.99937248       2.86663628
H       -0.30821609      -4.43177986       3.02324486
H       -2.33751297      -5.53400230       4.11781693
H       -3.97265625      -3.95195198       5.08739662
12
Properties=species:S:1:pos:R:3 name=BZ mapped_smiles="[c:1]1([H:7])[c:2]([H:8])[c:3]([H:9])[c:4]([H:10])[c:5]([H:11])[c:6]1[H:12]" pbc="F F F"
C       -2.12259483       8.62907219      -5.64470291
C       -2.61697197       9.76091576      -6.33532333
C       -3.00398064      10.92143059      -5.71247864
C       -3.08146477      11.00123405      -4.34080887
C       -2.58509636       9.91132164      -3.58072662
C       -2.10812187       8.71810722      -4.24880981
H       -1.74847984       7.72691917      -6.18513107
H       -2.67861748       9.78245354      -7.39686966
H       -3.43920708      11.73428154      -6.24961853
H       -3.38996696      11.96015739      -3.82218552
H       -2.45345116      10.04052544      -2.51511383
H       -1.77159691       7.88537407      -3.68334198
12
Properties=species:S:1:pos:R:3 name=BZ mapped_smiles="[c:1]1([H:7])[c:2]([H:8])[c:3]([H:9])[c:4]([H:10])[c:5]([H:11])[c:6]1[H:12]" pbc="F F F"
C        1.54052544      -1.68689537      -5.40537453
C        1.56201744      -0.52292442      -6.16460228
C        2.80796242       0.20044899      -6.33923912
C        3.94077110      -0.21733665      -5.64497948
C        3.88836479      -1.38989067      -4.91570854
C        2.72639656      -2.17543602      -4.81133461
H        0.60056114      -2.20104790      -5.19174385
H        0.71190834      -0.24217796      -6.73250389
H        2.80768776       1.04388618      -7.04430962
H        4.88763618       0.30640602      -5.76441383
H        4.78575706      -1.59226799      -4.30480003
H        2.70096779      -2.98441124      -4.10197067
12
Properties=species:S:1:pos:R:3 name=BZ mapped_smiles="[c:1]1([H:7])[c:2]([H:8])[c:3]([H:9])[c:4]([H:10])[c:5]([H:11])[c:6]1[H:12]" pbc="F F F"
C        6.18343925       7.70745277      -6.90152359
C        5.83585930       7.27246666      -8.20092964
C        5.28270531       6.05491257      -8.28372192
C        4.94758415       5.26925659      -7.16080856
C        5.29384422       5.63911057      -5.91188049
C        5.89296532       6.91422653      -5.74351883
H        6.65562248       8.71317863      -6.84704590
H        6.05776024       7.85872841      -9.11384392
H        4.97860527       5.67472076      -9.25481606
H        4.42436790       4.39205551      -7.28373337
H        4.98570824       5.11172485      -5.04582977
H        6.06426811       7.22617912      -4.71584320
12
Properties=species:S:1:pos:R:3 name=BZ mapped_smiles="[c:1]1([H:7])[c:2]([H:8])[c:3]([H:9])[c:4]([H:10])[c:5]([H:11])[c:6]1[H:12]" pbc="F F F"
C        4.85770416      -2.63430023      -2.12430573
C        5.03020477      -2.61318970      -0.72302246
C        6.03210449      -1.83185959      -0.07927513
C        6.81351471      -1.00355148      -0.88033867
C        6.73489761      -1.06814957      -2.28887939
C        5.77001190      -1.86991882      -2.91634750
H        4.24102020      -3.35562515      -2.67195702
H        4.40366364      -3.22823715      -0.11162186
H        6.12569427      -1.91464615       0.99237061
H        7.53935051      -0.27268600      -0.42231369
H        7.34145164      -0.33247757      -2.83368301
H        5.71921921      -1.78863525      -3.97185898
12
Properties=species:S:1:pos:R:3 name=BZ mapped_smiles="[c:1]1([H:7])[c:2]([H:8])[c:3]([H:9])[c:4]([H:10])[c:5]([H:11])[c:6]1[H:12]" pbc="F F F"
C        5.36180687       1.06476784      -0.77976227
C        5.78223991       2.45809746      -0.56186676
C        5.01276207       3.45874023       0.04206848
C        3.71496010       3.06006432       0.42372894
C        3.29014015       1.75649834       0.26760483
C        4.05513763       0.75494766      -0.39140320
H        6.01470375       0.31135178      -1.09340668
H        6.79369545       2.72047997      -0.84123230
H        5.49148369       4.47509956       0.18852615
H        3.10168266       3.80590248       0.89925766
H        2.30809784       1.46761703       0.58016205
H        3.79083252      -0.28727913      -0.61541367
12
Properties=species:S:1:pos:R:3 name=BZ mapped_smiles="[c:1]1([H:7])[c:2]([H:8])[c:3]([H:9])[c:4]([H:10])[c:5]([H:11])[c:6]1[H:12]" pbc="F F F"
C        1.16405487      -7.94347763       0.06519318
C        2.24597549      -7.10338593       0.01974678
C        3.49507523      -7.52295303      -0.43097687
C        3.69894409      -8.91034317      -0.65990639
C        2.61660004      -9.86068344      -0.50753975
C        1.33964920      -9.33609772      -0.14072227
H        0.25967407      -7.49839783       0.33773422
H        2.14864349      -6.07778168       0.27595329
H        4.36360550      -6.90179443      -0.48438644
H        4.64184952      -9.28767014      -0.97904778
H        2.79245758     -10.85770035      -0.67251587
H        0.47395706     -10.05366135       0.07029724
12
Properties=species:S:1:pos:R:3 name=BZ mapped_smiles="[c:1]1([H:7])[c:2]([H:8])[c:3]([H:9])[c:4]([H:10])[c:5]([H:11])[c:6]1[H:12]" pbc="F F F"
C       -3.29947662       5.87935257       9.12386894
C       -2.83600998       5.70831299       7.78667259
C       -1.45942307       5.92053223       7.50002861
C       -0.64217377       6.51969910       8.53031731
C       -1.06110764       6.68926620       9.82189751
C       -2.42079926       6.40011215      10.11622429
H       -4.31594086       5.55825424       9.37054253
H       -3.42938995       5.26131058       6.99631119
H       -1.08677673       5.77368546       6.50144196
H        0.29494476       6.83114624       8.22898674
H       -0.31291962       7.00658035      10.59185600
H       -2.73965454       6.50386810      11.16956902
12
Properties=species:S:1:pos:R:3 name=BZ mapped_smiles="[c:1]1([H:7])[c:2]([H:8])[c:3]([H:9])[c:4]([H:10])[c:5]([H:11])[c:6]1[H:12]" pbc="F F F"
C       -4.28125381      -1.98639679      -2.35021210
C       -3.19745255      -2.22176361      -3.23865700
C       -3.52959442      -2.75145721      -4.50803185
C       -4.85845566      -3.10827637      -4.84388924
C       -5.90356064      -2.87359619      -3.91940498
C       -5.59238052      -2.22302246      -2.74687386
H       -4.16358948      -1.43811798      -1.39099693
H       -2.24625015      -1.93736267      -2.90269661
H       -2.73177719      -2.92857361      -5.26028442
H       -5.10035324      -3.70451355      -5.75638962
H       -6.88329315      -3.04264069      -4.26013947
H       -6.34341812      -1.93200684      -2.01458549
12
Properties=species:S:1:pos:R:3 name=BZ mapped_smiles="[c:1]1([H:7])[c:2]([H:8])[c:3]([H:9])[c:4]([H:10])[c:5]([H:11])[c:6]1[H:12]" pbc="F F F"
C       -8.25528908      -0.49504662      -2.19974518
C       -7.96444511      -1.77428627      -2.69591904
C       -8.62824631      -2.92016411      -2.25932693
C       -9.61053467      -2.78650475      -1.23671341
C       -9.81072426      -1.57863808      -0.59364700
C       -9.17647171      -0.44113731      -1.12132645
H       -7.70617104       0.34182549      -2.54728699
H       -7.24048615      -1.81458473      -3.49792099
H       -8.64579391      -3.79880714      -2.91324234
H      -10.32387352      -3.64274025      -1.00998688
H      -10.58314514      -1.47712898       0.15304947
H       -9.42119789       0.47830009      -0.63620377
12
Properties=species:S:1:pos:R:3 name=BZ mapped_smiles="[c:1]1([H:7])[c:2]([H:8])[c:3]([H:9])[c:4]([H:10])[c:5]([H:11])[c:6]1[H:12]" pbc="F F F"
C        1.45261192       0.46495247      -5.87490082
C        1.19265747      -0.44414330      -6.84255981
C        0.31147003      -0.19046974      -7.85568237
C       -0.40214348       1.01252174      -7.80514145
C       -0.18306351       1.95573425      -6.76183701
C        0.77092934       1.67779541      -5.77633667
H        2.19984436       0.23235321      -5.08554077
H        1.67477417      -1.38239670      -6.87714767
H        0.13234329      -0.84508514      -8.73994446
H       -1.06160355       1.32244110      -8.60140610
H       -0.68256760       2.88502884      -6.71460724
H        1.03969383       2.37076759      -4.99808502
12
Properties=species:S:1:pos:R:3 name=BZ mapped_smiles="[c:1]1([H:7])[c:2]([H:8])[c:3]([H:9])[c:4]([H:10])[c:5]([H:11])[c:6]1[H:12]" pbc="F F F"
C       -3.32981682      -5.05113220       4.26422501
C       -3.99530602      -4.43751907       3.20186043
C       -3.35323906      -4.22966003       1.95672989
C       -2.03726959      -4.53767776       1.77385139
C       -1.30384064      -5.20880890       2.81063271
C       -1.93730927      -5.47167206       4.10397911
H       -3.85651970      -5.29806900       5.23960304
H       -5.05072594      -4.10709381       3.35285950
H       -3.92574120      -3.73487473       1.14884949
H       -1.57027435      -4.30708313       0.82351494
H       -0.25999451      -5.38459396       2.64797401
H       -1.45218658      -5.91323090       5.00078392
12
Properties=species:S:1:pos:R:3 name=BZ mapped_smiles="[c:1]1([H:7])[c:2]([H:8])[c:3]([H:9])[c:4]([H:10])[c:5]([H:11])[c:6]1[H:12]" pbc="F F F"
C        2.25886536      -2.47138214      -4.34646225
C        3.17276382      -3.48778152      -4.17656517
C        2.74103546      -4.73643875      -3.74163055
C        1.35396194      -5.03060150      -3.54473686
C        0.44298172      -3.95541000      -3.72348785
C        0.92671967      -2.68600464      -4.11013985
H        2.61414337      -1.50150299      -4.65305710
H        4.20586395      -3.25861740      -4.38884735
H        3.47792053      -5.49282837      -3.58212471
H        1.19806671      -6.02452850      -3.23694038
H       -0.53660965      -4.17870331      -3.46320152
H        0.24235916      -1.90054321      -4.34576607
12
Properties=species:S:1:pos:R:3 name=BZ mapped_smiles="[c:1]1([H:7])[c:2]([H:8])[c:3]([H:9])[c:4]([H:10])[c:5]([H:11])[c:6]1[H:12]" pbc="F F F"
C        1.46153641      -4.55525398       1.98594284
C        1.98766899      -3.65641403       2.88174820
C        3.25441170      -3.07885361       2.70078278
C        3.89655685      -3.29944420       1.49019623
C        3.36012459      -4.15378761       0.50391006
C        2.07964706      -4.76441193       0.71579552
H        0.50396729      -5.00727844       2.01272964
H        1.45977211      -3.38265228       3.76638794
H        3.64979935      -2.34322739       3.46256256
H        4.84879303      -2.70935059       1.27943039
H        3.78640556      -4.20170021      -0.41633034
H        1.61244202      -5.36517143      -0.03808403
12
Properties=species:S:1:pos:R:3 name=BZ mapped_smiles="[c:1]1([H:7])[c:2]([H:8])[c:3]([H:9])[c:4]([H:10])[c:5]([H:11])[c:6]1[H:12]" pbc="F F F"
C       -6.31464767      -2.99742317      -4.07561111
C       -5.38470459      -3.51844215      -4.97621536
C       -5.83902359      -4.13001442      -6.16924667
C       -7.20449066      -4.27013588      -6.42694473
C       -8.13204956      -3.61842537      -5.55920029
C       -7.68170166      -3.03279305      -4.33697128
H       -5.94808197      -2.55771065      -3.20257187
H       -4.34925461      -3.42296028      -4.71510696
H       -5.14294815      -4.60820961      -6.78876877
H       -7.57379913      -4.71443367      -7.36943436
H       -9.20615005      -3.77806282      -5.70075607
H       -8.34051895      -2.77252388      -3.51769638
12
Properties=species:S:1:pos:R:3 name=BZ mapped_smiles="[c:1]1([H:7])[c:2]([H:8])[c:3]([H:9])[c:4]([H:10])[c:5]([H:11])[c:6]1[H:12]" pbc="F F F"
C       -5.28151512      -1.37497711      -1.89524841
C       -4.36384392      -1.85652924      -0.91913223
C       -4.79367638      -2.10932159       0.40925217
C       -6.04258537      -1.71578598       0.79690933
C       -6.89692497      -1.03854752      -0.06121445
C       -6.52283287      -0.81771851      -1.40650177
H       -4.85120201      -1.20968628      -2.83288193
H       -3.32639885      -2.11210251      -1.12903976
H       -4.10079002      -2.53684998       1.11309433
H       -6.29418755      -1.88556671       1.88021469
H       -7.87756920      -0.56573868       0.19492722
H       -7.22887993      -0.26515198      -2.05191422
