10
Properties=species:S:1:pos:R:3 name=EC mapped_smiles="[C:1]1([H:7])([H:8])[C:2]([H:9])([H:10])[O:3][C:4](=[O:5])[O:6]1" pbc="F F F"
C        1.75761795      -8.58414841      -1.63578033
C        3.22354126      -8.11554718      -2.00410843
O        4.08277893      -9.00363159      -1.18235779
C        3.23271561      -9.66148758      -0.36041260
O        3.61328506     -10.26671982       0.57684708
O        1.95806122      -9.45541000      -0.55725861
H        1.34815979      -9.23496246      -2.37913895
H        0.99948120      -7.85975647      -1.36844254
H        3.38301468      -7.16943359      -1.55065536
H        3.42864227      -8.04292679      -3.10607910
10
Properties=species:S:1:pos:R:3 name=EC mapped_smiles="[C:1]1([H:7])([H:8])[C:2]([H:9])([H:10])[O:3][C:4](=[O:5])[O:6]1" pbc="F F F"
C        0.00000000       0.00000000       0.00000000
C        0.44315147       1.17422485       0.89567566
O       -0.63933754       1.35617447       1.80710793
C       -1.37498665       0.18661880       1.76788139
O       -2.34207344      -0.08274078       2.41913033
O       -0.93809891      -0.66596222       0.83224869
H        0.75474358      -0.69218445      -0.31971550
H       -0.51227188       0.25814438      -0.88346481
H        0.49090385       2.11915588       0.36808968
H        1.42772293       1.02701569       1.43412209
10
Properties=species:S:1:pos:R:3 name=EC mapped_smiles="[C:1]1([H:7])([H:8])[C:2]([H:9])([H:10])[O:3][C:4](=[O:5])[O:6]1" pbc="F F F"
C        0.00000000       0.00000000       0.00000000
C        0.67674255       0.57661629       1.15742874
O        1.63164139       1.51054382       0.68503189
C        1.67405128       1.43661690      -0.60979843
O        2.30596924       2.12802887      -1.36252975
O        0.82501793       0.44675446      -1.02421188
H       -1.01437569       0.42488098      -0.16382980
H       -0.11893845      -1.08341980       0.01460648
H        1.16426086      -0.20279694       1.73338318
H       -0.06371498       1.08005142       1.74227142
10
Properties=species:S:1:pos:R:3 name=EC mapped_smiles="[C:1]1([H:7])([H:8])[C:2]([H:9])([H:10])[O:3][C:4](=[O:5])[O:6]1" pbc="F F F"
C       -0.88374710      -1.12085724       4.03345108
C       -1.65206909      -1.92079544       5.09087944
O       -1.69618225      -0.99300957       6.21993256
C       -0.79578018       0.03645325       5.96891594
O       -0.51821518       0.86256409       6.78950310
O       -0.22036743      -0.07714653       4.68968964
H       -1.54638290      -0.63908577       3.36518669
H       -0.20333099      -1.72059822       3.46061897
H       -1.25246811      -2.84883499       5.35446739
H       -2.65748978      -2.22656631       4.90177727
10
Properties=species:S:1:pos:R:3 name=EC mapped_smiles="[C:1]1([H:7])([H:8])[C:2]([H:9])([H:10])[O:3][C:4](=[O:5])[O:6]1" pbc="F F F"
C        0.00000000       0.00000000       0.00000000
C       -0.71837807       1.37361336       0.02826881
O        0.27260208       2.13394547       0.81294632
C        1.43671227       1.51322365       0.94765282
O        2.43782616       2.04425621       1.33024406
O        1.26506996       0.22122383       0.63293839
H        0.21920776      -0.31787491      -0.99424934
H       -0.55161858      -0.80600166       0.48679161
H       -1.68430328       1.37630844       0.54128075
H       -0.77076149       1.92284012      -0.90212631
10
Properties=species:S:1:pos:R:3 name=EC mapped_smiles="[C:1]1([H:7])([H:8])[C:2]([H:9])([H:10])[O:3][C:4](=[O:5])[O:6]1" pbc="F F F"
C        0.00000000       0.00000000       0.00000000
C        0.50084496       0.65924835       1.34262848
O       -0.32336426       1.87297058       1.39351463
C       -1.56019592       1.62569809       0.76634216
O       -2.56162262       2.30179214       0.85391045
O       -1.40534401       0.45543098       0.03300667
H        0.03387260      -1.09533882       0.08133125
H        0.48798180       0.27610588      -0.94974136
H        1.52342796       0.98381996       1.24097061
H        0.28300667       0.03138351       2.30616760
10
Properties=species:S:1:pos:R:3 name=EC mapped_smiles="[C:1]1([H:7])([H:8])[C:2]([H:9])([H:10])[O:3][C:4](=[O:5])[O:6]1" pbc="F F F"
C        0.00000000       0.00000000       0.00000000
C        0.87203979      -0.03241730      -1.27779770
O        0.28823471       1.03863907      -2.07887650
C       -0.35532951       1.91561317      -1.16247177
O       -0.89364243       2.91931534      -1.51751328
O       -0.21410751       1.40184593       0.08327103
H        0.55615997      -0.42150497       0.88362503
H       -0.92429161      -0.53982735      -0.10689926
H        0.90876961      -0.98923302      -1.77424240
H        1.84617996       0.37107849      -1.00872421
10
Properties=species:S:1:pos:R:3 name=EC mapped_smiles="[C:1]1([H:7])([H:8])[C:2]([H:9])([H:10])[O:3][C:4](=[O:5])[O:6]1" pbc="F F F"
C        0.00000000       0.00000000       0.00000000
C        0.08280945      -1.36902618      -0.50797272
O        0.56903839      -2.09360886       0.65887070
C        0.50077057      -1.41481781       1.80123901
O        0.75162315      -1.81513977       2.91854858
O       -0.01732635      -0.28957367       1.45256042
H       -0.92539406       0.53934097      -0.32401657
H        0.88916969       0.66185760      -0.26169586
H        0.71199226      -1.43650436      -1.46631241
H       -0.94566727      -1.68220901      -0.80968857
10
Properties=species:S:1:pos:R:3 name=EC mapped_smiles="[C:1]1([H:7])([H:8])[C:2]([H:9])([H:10])[O:3][C:4](=[O:5])[O:6]1" pbc="F F F"
C        0.00000000       0.00000000       0.00000000
C        0.56772804      -0.99152756      -0.99366760
O        1.26797104      -0.17959976      -2.00596619
C        1.65251160       1.03091431      -1.39732742
O        2.30190849       1.97822189      -1.81608200
O        1.02207184       1.00463486      -0.16216278
H        0.05159760      -0.29463577       1.07738113
H       -1.01665688       0.42382050      -0.22624016
H       -0.18724823      -1.59006500      -1.45099640
H        1.36512184      -1.62063217      -0.70064735
10
Properties=species:S:1:pos:R:3 name=EC mapped_smiles="[C:1]1([H:7])([H:8])[C:2]([H:9])([H:10])[O:3][C:4](=[O:5])[O:6]1" pbc="F F F"
C        0.00000000       0.00000000       0.00000000
C       -0.99191666      -0.34128571      -1.11781502
O       -1.51900482       0.97308922      -1.36231232
C       -0.65699005       1.93607330      -0.87500000
O       -0.67607880       3.14585495      -1.08197021
O        0.25092316       1.37204742      -0.04759216
H        0.91800690      -0.54828262      -0.08047104
H       -0.38762283      -0.32277298       1.01002693
H       -1.71686172      -1.05540466      -0.80599785
H       -0.53377914      -0.67791367      -2.02187538
10
Properties=species:S:1:pos:R:3 name=EC mapped_smiles="[C:1]1([H:7])([H:8])[C:2]([H:9])([H:10])[O:3][C:4](=[O:5])[O:6]1" pbc="F F F"
C        0.00000000       0.00000000       0.00000000
C       -0.94995880      -1.12285614      -0.02419090
O       -0.55446625      -1.91845131      -1.08589745
C        0.47898102      -1.40123177      -1.76036263
O        0.97748947      -1.80455399      -2.75440598
O        0.87579346      -0.24464989      -1.07915497
H        0.68596649      -0.03635406       0.89349556
H       -0.36272049       1.00635147      -0.06563759
H       -1.88937759      -0.72907257      -0.29362869
H       -0.98649979      -1.74769592       0.87010765
10
Properties=species:S:1:pos:R:3 name=EC mapped_smiles="[C:1]1([H:7])([H:8])[C:2]([H:9])([H:10])[O:3][C:4](=[O:5])[O:6]1" pbc="F F F"
C       -2.70419693       2.59469604       5.28842545
C       -3.61036682       1.39862442       5.79034424
O       -4.24342728       1.06849289       4.51368332
C       -3.52468300       1.58715820       3.44821548
O       -3.76910019       1.44618225       2.30695343
O       -2.45599747       2.34957504       3.91045380
H       -1.76094055       2.61185837       5.87027359
H       -3.15237427       3.51208878       5.45027161
H       -4.37424660       1.60386276       6.56106186
H       -2.95077133       0.55715942       6.13768578
10
Properties=species:S:1:pos:R:3 name=EC mapped_smiles="[C:1]1([H:7])([H:8])[C:2]([H:9])([H:10])[O:3][C:4](=[O:5])[O:6]1" pbc="F F F"
C        0.00000000       0.00000000       0.00000000
C        0.36289215       1.49783325       0.11664391
O       -0.82016754       2.20482445       0.57923698
C       -1.62842560       1.20429993       1.04953575
O       -2.59807205       1.48407364       1.65434074
O       -1.19376755      -0.06709671       0.85282326
H        0.77698517      -0.66982079       0.22804070
H       -0.24654007      -0.29503250      -0.99866486
H        0.67338562       1.91331291      -0.80414009
H        1.20458221       1.71126366       0.81963730
10
Properties=species:S:1:pos:R:3 name=EC mapped_smiles="[C:1]1([H:7])([H:8])[C:2]([H:9])([H:10])[O:3][C:4](=[O:5])[O:6]1" pbc="F F F"
C        0.00000000       0.00000000       0.00000000
C       -0.02891159      -1.43845367      -0.33317566
O       -0.68815422      -1.49268341      -1.61120605
C       -1.00625038      -0.26261902      -2.05068588
O       -1.51148796      -0.00724983      -3.15832901
O       -0.79780197       0.65952873      -1.09268570
H        1.05107498       0.42376137       0.06550217
H       -0.44809723       0.33469772       0.97312164
H       -0.54960060      -2.01643181       0.41772079
H        1.00523376      -1.82604599      -0.59930420
10
Properties=species:S:1:pos:R:3 name=EC mapped_smiles="[C:1]1([H:7])([H:8])[C:2]([H:9])([H:10])[O:3][C:4](=[O:5])[O:6]1" pbc="F F F"
C        0.00000000       0.00000000       0.00000000
C        1.06694794      -0.96882248      -0.56723785
O        2.29396820      -0.56327438      -0.01254654
C        2.10270309       0.72412300       0.53459167
O        2.97986221       1.44911766       0.86987686
O        0.83576965       1.01920319       0.55120087
H       -0.54880524      -0.34187126       0.83553314
H       -0.77923203       0.45880318      -0.60802460
H        1.24124527      -1.00163841      -1.62014008
H        0.85907364      -2.01544762      -0.28229141
10
Properties=species:S:1:pos:R:3 name=EC mapped_smiles="[C:1]1([H:7])([H:8])[C:2]([H:9])([H:10])[O:3][C:4](=[O:5])[O:6]1" pbc="F F F"
C        0.00000000       0.00000000       0.00000000
C        0.28832054       1.04767609       1.03363419
O        0.80787468       0.30029488       2.11507034
C        0.92750549      -1.05271721       1.78985596
O        1.35359573      -1.92940903       2.53251648
O        0.38501167      -1.24768066       0.51017380
H        0.45196533       0.24437904      -0.96886826
H       -1.07860565      -0.13860130      -0.20727921
H       -0.52430534       1.51608276       1.51158142
H        0.96388054       1.82562256       0.71955490
10
Properties=species:S:1:pos:R:3 name=EC mapped_smiles="[C:1]1([H:7])([H:8])[C:2]([H:9])([H:10])[O:3][C:4](=[O:5])[O:6]1" pbc="F F F"
C        0.00000000       0.00000000       0.00000000
C        0.30490303       1.43494034      -0.25645065
O       -0.92658615       2.07606506      -0.61230278
C       -1.83060074       1.14855385      -0.87951851
O       -2.96188736       1.29717445      -1.20087624
O       -1.33201981      -0.08132362      -0.60790634
H       -0.17682457      -0.27219391       1.07963943
H        0.66440582      -0.71356964      -0.45577049
H        1.05614281       1.54804802      -1.08922195
H        0.77405739       1.87304115       0.64239120
10
Properties=species:S:1:pos:R:3 name=EC mapped_smiles="[C:1]1([H:7])([H:8])[C:2]([H:9])([H:10])[O:3][C:4](=[O:5])[O:6]1" pbc="F F F"
C        5.89218521      -5.11788559       4.03022766
C        6.03680420      -5.22669220       2.55101395
O        7.50179100      -4.81595993       2.42013931
C        7.87472343      -4.15235901       3.55305481
O        8.92818069      -3.63191986       3.78477859
O        6.83685303      -4.10867691       4.42856216
H        6.10531425      -6.04357910       4.66599274
H        4.93230820      -4.83398438       4.22584534
H        5.37517738      -4.40879440       2.10123825
H        5.88220024      -6.22101212       2.11600876
10
Properties=species:S:1:pos:R:3 name=EC mapped_smiles="[C:1]1([H:7])([H:8])[C:2]([H:9])([H:10])[O:3][C:4](=[O:5])[O:6]1" pbc="F F F"
C        0.00000000       0.00000000       0.00000000
C        0.43026352       1.48274422      -0.14724731
O        1.83099365       1.43578339      -0.44455338
C        2.26049042       0.25898933       0.01971817
O        3.39544678      -0.13400078       0.09012222
O        1.21860504      -0.58921242       0.40173721
H       -0.19999695      -0.51833153      -0.97523499
H       -0.75737762      -0.25196075       0.70655823
H        0.40547562       2.08029175       0.74779129
H       -0.06474686       2.05630112      -0.86708069
10
Properties=species:S:1:pos:R:3 name=EC mapped_smiles="[C:1]1([H:7])([H:8])[C:2]([H:9])([H:10])[O:3][C:4](=[O:5])[O:6]1" pbc="F F F"
C        0.00000000       0.00000000       0.00000000
C       -1.25710297      -0.93758202       0.17378616
O       -2.31266785      -0.23943329      -0.52476692
C       -1.91675568       0.95058250      -0.98217010
O       -2.58433914       1.67024612      -1.67236710
O       -0.60477829       1.13192940      -0.59574127
H        0.75734329      -0.46605492      -0.69214249
H        0.52172089       0.25987816       0.93609428
H       -1.62813568      -1.01004219       1.22738457
H       -1.20100403      -1.87820053      -0.28617477
10
Properties=species:S:1:pos:R:3 name=EC mapped_smiles="[C:1]1([H:7])([H:8])[C:2]([H:9])([H:10])[O:3][C:4](=[O:5])[O:6]1" pbc="F F F"
C        4.04412460      -1.68147469       0.58166885
C        4.19709206      -0.29953003       0.14520264
O        5.61971092      -0.27197266      -0.15547943
C        6.24665833      -1.19009781       0.57138062
O        7.41463852      -1.25861549       0.73979568
O        5.29532242      -1.95498276       1.18247223
H        3.87977219      -2.38309288      -0.27319336
H        3.26230240      -1.78918266       1.30823898
H        3.99308586       0.41830444       0.98247910
H        3.60175323       0.02297783      -0.66461182
10
Properties=species:S:1:pos:R:3 name=EC mapped_smiles="[C:1]1([H:7])([H:8])[C:2]([H:9])([H:10])[O:3][C:4](=[O:5])[O:6]1" pbc="F F F"
C        0.00000000       0.00000000       0.00000000
C       -1.43001556       0.43329239      -0.25844193
O       -1.22007942       1.69935608      -0.88431549
C       -0.03299713       2.13591766      -0.59339142
O        0.33142853       3.22189713      -0.86549759
O        0.65929794       1.20925140       0.17693710
H        0.50871658      -0.58890915      -0.78108215
H        0.13103485      -0.52636337       0.96948242
H       -1.89270020       0.67761612       0.63286591
H       -2.04321098      -0.09681320      -1.01485634
10
Properties=species:S:1:pos:R:3 name=EC mapped_smiles="[C:1]1([H:7])([H:8])[C:2]([H:9])([H:10])[O:3][C:4](=[O:5])[O:6]1" pbc="F F F"
C        0.00000000       0.00000000       0.00000000
C       -0.47372437       0.95088577       1.09699631
O       -0.35063171       0.21901131       2.25113678
C        0.09871292      -0.98792458       2.10245514
O        0.25612640      -1.78005791       2.99027252
O        0.37295532      -1.12366867       0.70550156
H        0.89936447       0.25524712      -0.56981468
H       -0.77725983      -0.31814194      -0.63203621
H       -1.50977325       1.34972382       1.08728790
H        0.14074707       1.79986382       1.19157791
10
Properties=species:S:1:pos:R:3 name=EC mapped_smiles="[C:1]1([H:7])([H:8])[C:2]([H:9])([H:10])[O:3][C:4](=[O:5])[O:6]1" pbc="F F F"
C        0.72698975      -1.10831070       3.85251236
C        1.36661530       0.15854263       4.16473389
O        1.78153992       0.09012604       5.54959488
C        1.55400085      -1.15350151       5.97542572
O        1.70250320      -1.52120972       7.11623764
O        0.94246292      -1.92241478       5.00448608
H        1.14088821      -1.61044693       3.00640869
H       -0.33387375      -1.04748344       3.77925873
H        0.68487549       0.98188591       4.12559509
H        2.23800278       0.32612801       3.48775864
10
Properties=species:S:1:pos:R:3 name=EC mapped_smiles="[C:1]1([H:7])([H:8])[C:2]([H:9])([H:10])[O:3][C:4](=[O:5])[O:6]1" pbc="F F F"
C        0.00000000       0.00000000       0.00000000
C        1.14402390       0.72804260      -0.62966728
O        0.74747086       0.88806534      -2.07966423
C       -0.37435913       0.22827530      -2.26905823
O       -0.94821358       0.16526031      -3.35966682
O       -0.78573990      -0.45247269      -1.12036133
H       -0.66876984       0.57735825       0.59302139
H        0.37620544      -0.83987045       0.54262161
H        2.04742050       0.11468506      -0.51058388
H        1.38205147       1.64899445      -0.13022995
10
Properties=species:S:1:pos:R:3 name=EC mapped_smiles="[C:1]1([H:7])([H:8])[C:2]([H:9])([H:10])[O:3][C:4](=[O:5])[O:6]1" pbc="F F F"
C        0.00000000       0.00000000       0.00000000
C        0.33328629       1.08857346      -1.01202583
O       -0.69335938       2.02709961      -0.94325829
C       -1.40261841       1.86010551       0.16216278
O       -2.21872330       2.59988403       0.67077255
O       -1.08723450       0.64363480       0.62290955
H        0.81181717      -0.07315445       0.74264145
H       -0.20677567      -1.00309753      -0.32600021
H        0.50012589       0.69556808      -2.04227448
H        1.26012039       1.64467621      -0.78839111
10
Properties=species:S:1:pos:R:3 name=EC mapped_smiles="[C:1]1([H:7])([H:8])[C:2]([H:9])([H:10])[O:3][C:4](=[O:5])[O:6]1" pbc="F F F"
C        0.00000000       0.00000000       0.00000000
C       -1.41992760      -0.20138931      -0.23280716
O       -1.39469910      -0.52011871      -1.66204453
C       -0.18411827      -1.05624771      -1.98927689
O        0.05821037      -1.70627785      -2.94335556
O        0.63685608      -0.76330948      -0.99735260
H        0.31678772      -0.34799194       0.98410797
H        0.36025238       1.03457260      -0.03880310
H       -2.12347031       0.61029816       0.08980942
H       -1.68579102      -1.15055847       0.28382111
10
Properties=species:S:1:pos:R:3 name=EC mapped_smiles="[C:1]1([H:7])([H:8])[C:2]([H:9])([H:10])[O:3][C:4](=[O:5])[O:6]1" pbc="F F F"
C        0.00000000       0.00000000       0.00000000
C       -0.98019028       0.13562965       1.14679527
O       -2.29837799       0.00491524       0.57785034
C       -2.10524750      -0.56101799      -0.59896469
O       -2.92904472      -1.10141945      -1.28250122
O       -0.80212784      -0.56960487      -0.99511337
H        0.93320465      -0.55963135       0.23739433
H        0.37033463       0.98310471      -0.46031189
H       -0.85451889       1.08146858       1.73654747
H       -0.91797638      -0.70849419       1.89548302
10
Properties=species:S:1:pos:R:3 name=EC mapped_smiles="[C:1]1([H:7])([H:8])[C:2]([H:9])([H:10])[O:3][C:4](=[O:5])[O:6]1" pbc="F F F"
C        0.00000000       0.00000000       0.00000000
C       -0.04460526      -0.93770599      -1.23113823
O        1.17715836      -0.62662506      -1.92022324
C        1.72052002       0.52632904      -1.49155426
O        2.68077087       1.07458878      -1.93771172
O        0.95148849       1.06279373      -0.52267456
H        0.59908676      -0.46998024       0.81658554
H       -0.99735641       0.40462112       0.35284805
H       -0.95783997      -0.79933929      -1.89134789
H       -0.02952957      -2.02074814      -1.01239967
10
Properties=species:S:1:pos:R:3 name=EC mapped_smiles="[C:1]1([H:7])([H:8])[C:2]([H:9])([H:10])[O:3][C:4](=[O:5])[O:6]1" pbc="F F F"
C       -2.30145645      -3.24569702       2.03949547
C       -2.57876205      -3.67544746       0.56339455
O       -1.26329422      -4.20910263       0.22667122
C       -0.56510925      -4.47099686       1.33208275
O        0.49846649      -5.04265976       1.25731277
O       -1.20453835      -4.07622337       2.46099663
H       -3.18758392      -3.44051361       2.64988518
H       -1.94518471      -2.19302750       2.15849876
H       -2.75516891      -2.84509087      -0.11479378
H       -3.40888596      -4.37165070       0.49452972
10
Properties=species:S:1:pos:R:3 name=EC mapped_smiles="[C:1]1([H:7])([H:8])[C:2]([H:9])([H:10])[O:3][C:4](=[O:5])[O:6]1" pbc="F F F"
C        0.00000000       0.00000000       0.00000000
C        0.54718781       1.35506439      -0.24696732
O        0.13706398       1.62232971      -1.57783127
C       -0.28917885       0.51064301      -2.17102432
O       -0.59568214       0.45694733      -3.32254028
O       -0.40590858      -0.54223061      -1.29707718
H       -0.85394669      -0.00429535       0.62957001
H        0.73841667      -0.56040573       0.51894760
H        1.61088562       1.34537888      -0.09723282
H        0.26610184       2.12257195       0.45590591
10
Properties=species:S:1:pos:R:3 name=EC mapped_smiles="[C:1]1([H:7])([H:8])[C:2]([H:9])([H:10])[O:3][C:4](=[O:5])[O:6]1" pbc="F F F"
C        0.00000000       0.00000000       0.00000000
C        0.22799683       1.52363586      -0.01061440
O        0.79514122       1.73257065       1.29125977
C        0.48673630       0.77566528       2.10023880
O        0.73045540       0.78082275       3.28528214
O       -0.11523056      -0.19832230       1.40752029
H        0.93473244      -0.48654938      -0.33623695
H       -0.89508820      -0.38610458      -0.46260643
H       -0.69317627       2.13098526      -0.04958534
H        0.88745308       1.77716827      -0.85605240
10
Properties=species:S:1:pos:R:3 name=EC mapped_smiles="[C:1]1([H:7])([H:8])[C:2]([H:9])([H:10])[O:3][C:4](=[O:5])[O:6]1" pbc="F F F"
C        0.00000000       0.00000000       0.00000000
C        1.07832336       1.01173019      -0.25992203
O        0.69173813       1.48834610      -1.52323914
C       -0.20581818       0.60461044      -2.13464737
O       -0.48134232       0.69130707      -3.29291534
O       -0.62331772      -0.39606857      -1.25740242
H       -0.77448273       0.33916473       0.64117241
H        0.48508072      -0.87146759       0.45163345
H        2.07316589       0.55620193      -0.45390320
H        1.20533752       1.78857040       0.46991730
10
Properties=species:S:1:pos:R:3 name=EC mapped_smiles="[C:1]1([H:7])([H:8])[C:2]([H:9])([H:10])[O:3][C:4](=[O:5])[O:6]1" pbc="F F F"
C        0.00000000       0.00000000       0.00000000
C       -0.95248985      -1.07791519       0.31905746
O       -1.69015312      -0.70221329       1.44320297
C       -1.38450623       0.64429474       1.67483521
O       -1.88582802       1.32355499       2.54946899
O       -0.48151398       1.11952972       0.81466484
H        0.18054581       0.23932648      -1.02861214
H        1.03165627      -0.28680420       0.25351906
H       -0.48610115      -2.02755737       0.60832977
H       -1.69626045      -1.24872971      -0.46627808
10
Properties=species:S:1:pos:R:3 name=EC mapped_smiles="[C:1]1([H:7])([H:8])[C:2]([H:9])([H:10])[O:3][C:4](=[O:5])[O:6]1" pbc="F F F"
C        0.00000000       0.00000000       0.00000000
C        0.62615967       1.37567711       0.11476898
O        0.13528061       2.00250816      -1.00601578
C       -0.76943207       1.21198273      -1.72212601
O       -1.37373352       1.62461662      -2.64211845
O       -0.75552368      -0.02186966      -1.22079086
H       -0.72501755      -0.20329475       0.79606056
H        0.75525284      -0.82544518       0.04947853
H        1.69669724       1.32719803      -0.04724693
H        0.47634506       1.95575333       1.01898766
10
Properties=species:S:1:pos:R:3 name=EC mapped_smiles="[C:1]1([H:7])([H:8])[C:2]([H:9])([H:10])[O:3][C:4](=[O:5])[O:6]1" pbc="F F F"
C        0.00000000       0.00000000       0.00000000
C        0.86471558       1.01819611       0.71633339
O        2.12844849       0.25984955       1.05754852
C        1.89717102      -1.02429962       0.76282310
O        2.67764282      -1.84854507       1.11001396
O        0.72988510      -1.29808807       0.09702873
H       -0.04812622       0.19792557      -1.08228302
H       -1.01761627      -0.10428619       0.39142990
H        0.38718414       1.43116379       1.62895775
H        1.03260040       1.87757874       0.08372879
10
Properties=species:S:1:pos:R:3 name=EC mapped_smiles="[C:1]1([H:7])([H:8])[C:2]([H:9])([H:10])[O:3][C:4](=[O:5])[O:6]1" pbc="F F F"
C        0.00000000       0.00000000       0.00000000
C        1.34736633      -0.34979630       0.59324646
O        1.22455978      -0.15423393       2.06304932
C       -0.11109543       0.14024544       2.29081154
O       -0.52207947       0.41556931       3.35516930
O       -0.86000824       0.07987213       1.14970779
H       -0.34587479      -0.79591751      -0.62737274
H       -0.02297974       0.95997620      -0.61765480
H        2.11049652       0.33208656       0.25663757
H        1.66143036      -1.38645935       0.35775185
10
Properties=species:S:1:pos:R:3 name=EC mapped_smiles="[C:1]1([H:7])([H:8])[C:2]([H:9])([H:10])[O:3][C:4](=[O:5])[O:6]1" pbc="F F F"
C        0.00000000       0.00000000       0.00000000
C       -0.73703575       0.81158066      -0.99325180
O        0.17884827       1.97597122      -1.30454826
C        1.35203171       1.72844696      -0.76168823
O        2.30644798       2.38521957      -0.82616425
O        1.36717224       0.51595306      -0.08448792
H        0.12525940      -1.05297089      -0.30487633
H       -0.34966087       0.14066696       1.04995918
H       -1.61335945       1.26778412      -0.55366898
H       -0.98073769       0.12881088      -1.80239677
10
Properties=species:S:1:pos:R:3 name=EC mapped_smiles="[C:1]1([H:7])([H:8])[C:2]([H:9])([H:10])[O:3][C:4](=[O:5])[O:6]1" pbc="F F F"
C        0.00000000       0.00000000       0.00000000
C        0.31819344      -1.10433388       1.03072739
O       -0.96172523      -1.83257103       1.28350830
C       -1.83148384      -1.28022957       0.36409760
O       -2.92934608      -1.78695488       0.19428635
O       -1.28166008      -0.34691429      -0.37470627
H        0.72245407      -0.06968307      -0.87185287
H        0.01750183       1.02152252       0.25111771
H        0.71802902      -0.72386360       1.90110779
H        1.13301468      -1.87282181       0.72218704
10
Properties=species:S:1:pos:R:3 name=EC mapped_smiles="[C:1]1([H:7])([H:8])[C:2]([H:9])([H:10])[O:3][C:4](=[O:5])[O:6]1" pbc="F F F"
C        0.00000000       0.00000000       0.00000000
C       -0.05259514       1.31726265       0.70618439
O        0.13475990       2.29268074      -0.29371643
C        0.48570061       1.63286972      -1.42947006
O        0.82342529       2.15849304      -2.43173218
O        0.48623085       0.30400848      -1.33281708
H       -0.99190140      -0.42187881      -0.22648239
H        0.66564751      -0.72681046       0.51833725
H        0.74222374       1.42060661       1.54214859
H       -0.90517044       1.59095573       1.19063950
