10
Properties=species:S:1:pos:R:3 name=EC mapped_smiles="[C:1]1([H:7])([H:8])[C:2]([H:9])([H:10])[O:3][C:4](=[O:5])[O:6]1" pbc="F F F"
C        1.61524963      -2.74076843      -2.43059540
C        2.65984344      -3.82341003      -2.55162430
O        1.98474121      -5.00717163      -2.23881149
C        0.62591934      -4.75957489      -2.38392639
O       -0.19800186      -5.59860992      -2.15472412
O        0.39638519      -3.44273758      -2.66354752
H        1.80788422      -1.91849899      -3.21156693
H        1.63640594      -2.28667450      -1.48777771
H        3.47760391      -3.64683914      -1.88359833
H        3.08032990      -3.95086670      -3.56378937
10
Properties=species:S:1:pos:R:3 name=EC mapped_smiles="[C:1]1([H:7])([H:8])[C:2]([H:9])([H:10])[O:3][C:4](=[O:5])[O:6]1" pbc="F F F"
C       -7.37111282       3.93396378       5.05748940
C       -7.17030716       3.38507843       6.44855881
O       -5.91292763       2.50498199       6.37719154
C       -5.59948921       2.46588135       5.03330994
O       -4.67361259       1.80709839       4.56985092
O       -6.43004227       3.18003082       4.17966461
H       -7.17776871       4.99544144       4.97025681
H       -8.45825195       3.90432358       4.80721092
H       -7.91912079       2.59563446       6.72642326
H       -7.02501297       4.11814880       7.14876938
10
Properties=species:S:1:pos:R:3 name=EC mapped_smiles="[C:1]1([H:7])([H:8])[C:2]([H:9])([H:10])[O:3][C:4](=[O:5])[O:6]1" pbc="F F F"
C       -1.14814186      -0.59189606       9.38700867
C        0.03848076      -0.18741035       8.46755600
O       -0.48939323       0.26196861       7.22837448
C       -1.82136536       0.29191017       7.36196899
O       -2.60814476       0.86258698       6.69599152
O       -2.19721794      -0.34029388       8.49885941
H       -1.38709831      -0.05431557      10.30134201
H       -1.24987411      -1.69022560       9.66120529
H        0.68058014      -1.08520889       8.28247833
H        0.60124016       0.64775848       8.95500565
10
Properties=species:S:1:pos:R:3 name=EC mapped_smiles="[C:1]1([H:7])([H:8])[C:2]([H:9])([H:10])[O:3][C:4](=[O:5])[O:6]1" pbc="F F F"
C        1.26501083      -3.68269348       7.05735970
C        2.03632355      -3.73894119       8.34108734
O        1.98263168      -2.35295296       8.77321243
C        1.75606918      -1.49006081       7.76970863
O        1.83969116      -0.29858780       7.85385323
O        1.31206512      -2.24206352       6.68160820
H        0.16405869      -3.96298218       7.09444809
H        1.62531281      -4.31380653       6.26455307
H        3.12415695      -4.02096367       8.27827072
H        1.63642120      -4.25397682       9.24113846
10
Properties=species:S:1:pos:R:3 name=EC mapped_smiles="[C:1]1([H:7])([H:8])[C:2]([H:9])([H:10])[O:3][C:4](=[O:5])[O:6]1" pbc="F F F"
C        3.69716072       0.61056137       7.67442131
C        5.15689278       0.17422295       8.04298210
O        4.99331284      -1.20531845       8.36899185
C        3.63962364      -1.56581688       8.28374100
O        3.11945915      -2.64886856       8.49454880
O        2.93722534      -0.53392982       7.80130577
H        3.68420601       0.97074699       6.66646004
H        3.19342995       1.32050133       8.26967239
H        5.57347679       0.76957130       8.84460831
H        5.88207626       0.26230049       7.29531288
10
Properties=species:S:1:pos:R:3 name=EC mapped_smiles="[C:1]1([H:7])([H:8])[C:2]([H:9])([H:10])[O:3][C:4](=[O:5])[O:6]1" pbc="F F F"
C        0.25175858       2.82175064      -4.99657059
C       -0.05658150       2.58328247      -6.47626114
O        0.89667511       3.39701462      -7.15535355
C        1.73804474       4.00008392      -6.33404922
O        2.57322121       4.73578262      -6.73837662
O        1.30480385       3.70520020      -5.04240799
H        0.55315208       1.98675537      -4.38306046
H       -0.61280441       3.23942566      -4.37176895
H       -1.10439301       2.83174133      -6.83003616
H        0.12224770       1.56716537      -6.83353043
10
Properties=species:S:1:pos:R:3 name=EC mapped_smiles="[C:1]1([H:7])([H:8])[C:2]([H:9])([H:10])[O:3][C:4](=[O:5])[O:6]1" pbc="F F F"
C       -1.75548553      -0.26210213      -3.99141693
C       -2.75226784      -1.25742340      -4.56745148
O       -2.13635826      -2.57674789      -4.49079514
C       -0.79736328      -2.32333755      -4.33609009
O       -0.01008415      -3.25163651      -4.25666809
O       -0.55586815      -0.96030426      -4.15003967
H       -1.84229469      -0.21260834      -2.89476395
H       -1.67020035       0.78550339      -4.28793716
H       -2.96028137      -1.00215340      -5.63044548
H       -3.78219223      -1.23543930      -4.06766129
10
Properties=species:S:1:pos:R:3 name=EC mapped_smiles="[C:1]1([H:7])([H:8])[C:2]([H:9])([H:10])[O:3][C:4](=[O:5])[O:6]1" pbc="F F F"
C       -2.15738487       6.01970291       4.73699570
C       -2.56760025       5.43423843       6.10859680
O       -1.40233612       4.73903656       6.54830551
C       -0.51376534       4.57597733       5.51847839
O        0.54997253       4.01447296       5.51343918
O       -1.01750755       5.19800568       4.42009735
H       -1.75909233       7.05218506       4.86684036
H       -2.90124130       5.98270798       3.95146942
H       -3.40073967       4.77301407       6.10510635
H       -2.81531906       6.22305298       6.77614212
10
Properties=species:S:1:pos:R:3 name=EC mapped_smiles="[C:1]1([H:7])([H:8])[C:2]([H:9])([H:10])[O:3][C:4](=[O:5])[O:6]1" pbc="F F F"
C        5.46385574       1.81967163      -2.73586655
C        6.20993042       2.64030838      -3.74640656
O        7.44419861       2.96262741      -2.99217224
C        7.45018768       2.36205673      -1.86161041
O        8.35026169       2.41969681      -1.05627251
O        6.36579895       1.58790970      -1.71040726
H        5.11777496       0.88833618      -3.25566864
H        4.64554214       2.34367371      -2.31172752
H        5.65977097       3.49658203      -4.03966713
H        6.53452682       2.00168991      -4.62074661
10
Properties=species:S:1:pos:R:3 name=EC mapped_smiles="[C:1]1([H:7])([H:8])[C:2]([H:9])([H:10])[O:3][C:4](=[O:5])[O:6]1" pbc="F F F"
C        0.21546936      -2.91026115      -7.99962997
C        1.06423569      -3.69184303      -7.03962326
O        0.51028442      -4.99866486      -7.14981461
C       -0.63520813      -5.04186249      -7.88057899
O       -1.32158661      -6.01213074      -7.97110748
O       -0.87926865      -3.81507301      -8.44459724
H        0.67422485      -2.57718849      -8.90220451
H       -0.21663666      -2.01876640      -7.58207512
H        1.02473068      -3.36956215      -5.96625519
H        2.19929504      -3.81466866      -7.28521729
10
Properties=species:S:1:pos:R:3 name=EC mapped_smiles="[C:1]1([H:7])([H:8])[C:2]([H:9])([H:10])[O:3][C:4](=[O:5])[O:6]1" pbc="F F F"
C        2.70254517       2.97358513      -0.01804924
C        2.69998932       2.71777916       1.53261948
O        2.84865189       4.11017799       2.04283905
C        3.23599625       4.92107964       0.97042274
O        3.70676041       6.03564644       1.14908218
O        3.30032730       4.27007103      -0.17127419
H        1.61145782       3.07055473      -0.29684448
H        3.26720428       2.19986534      -0.51416588
H        3.56533813       2.07838249       1.78723145
H        1.73674774       2.27441978       1.79924774
10
Properties=species:S:1:pos:R:3 name=EC mapped_smiles="[C:1]1([H:7])([H:8])[C:2]([H:9])([H:10])[O:3][C:4](=[O:5])[O:6]1" pbc="F F F"
C       -2.12221909      -2.76776886       2.97497368
C       -2.79959297      -1.85634995       1.97882843
O       -4.11513710      -1.94070816       2.22914505
C       -4.36162949      -2.89288330       3.26589203
O       -5.51182556      -3.17620087       3.56406403
O       -3.16750526      -3.25112915       3.86220551
H       -1.26078796      -2.34734726       3.55232239
H       -1.72814560      -3.67282867       2.53057480
H       -2.48078918      -2.17639923       1.02765274
H       -2.48382950      -0.88150406       2.10293007
10
Properties=species:S:1:pos:R:3 name=EC mapped_smiles="[C:1]1([H:7])([H:8])[C:2]([H:9])([H:10])[O:3][C:4](=[O:5])[O:6]1" pbc="F F F"
C       -2.01799393       4.71895599       3.21766663
C       -3.10871124       4.36582947       4.24190331
O       -4.16143036       3.73225021       3.31513023
C       -3.74279785       3.90716934       2.04280090
O       -4.47859573       3.74472237       1.10099792
O       -2.46494293       4.25810814       1.92243004
H       -1.06285095       4.25588608       3.46512413
H       -1.89621353       5.83884239       3.15046883
H       -3.54359055       5.21514130       4.67208099
H       -2.87947845       3.53702164       4.88819504
10
Properties=species:S:1:pos:R:3 name=EC mapped_smiles="[C:1]1([H:7])([H:8])[C:2]([H:9])([H:10])[O:3][C:4](=[O:5])[O:6]1" pbc="F F F"
C       -0.99935150       4.28605652       3.28778076
C       -1.93368530       3.57230949       2.26869965
O       -1.07389069       2.45711327       1.78334808
C        0.17193413       2.59346008       2.27355194
O        1.09251213       1.94738388       1.96326828
O        0.25172043       3.66772652       3.04418182
H       -1.30260468       4.02418709       4.27462769
H       -0.87785149       5.36139870       3.12579727
H       -1.99713135       4.34771347       1.50588226
H       -2.94989014       3.24471474       2.61944199
10
Properties=species:S:1:pos:R:3 name=EC mapped_smiles="[C:1]1([H:7])([H:8])[C:2]([H:9])([H:10])[O:3][C:4](=[O:5])[O:6]1" pbc="F F F"
C       -3.06592560      -1.36495972       4.57885742
C       -1.70876694      -0.70939064       4.42590332
O       -1.19929504      -0.69363976       5.78182220
C       -1.85990143      -1.61880112       6.49161911
O       -1.51441193      -2.03053093       7.56938934
O       -2.96142197      -2.08456421       5.78172302
H       -3.38567734      -2.00349236       3.78027725
H       -3.88860703      -0.72057152       4.63760376
H       -1.61361313       0.29575920       3.90918350
H       -1.01119995      -1.42405510       3.86141205
10
Properties=species:S:1:pos:R:3 name=EC mapped_smiles="[C:1]1([H:7])([H:8])[C:2]([H:9])([H:10])[O:3][C:4](=[O:5])[O:6]1" pbc="F F F"
C        0.64696312      -0.41262245      -8.42429733
C       -0.41424561       0.38415527      -9.18008041
O       -0.52637100       1.60884476      -8.40760422
C        0.20512962       1.61478424      -7.34470940
O        0.23397446       2.53907394      -6.55775833
O        0.84721947       0.41286659      -7.22414780
H        1.62286568      -0.62469864      -8.92481995
H        0.28083038      -1.37874603      -8.13648605
H       -1.32627296      -0.10210037      -9.19396210
H        0.01315498       0.59342194     -10.17989349
10
Properties=species:S:1:pos:R:3 name=EC mapped_smiles="[C:1]1([H:7])([H:8])[C:2]([H:9])([H:10])[O:3][C:4](=[O:5])[O:6]1" pbc="F F F"
C       -2.40808487       3.27860832       2.36525726
C       -0.88283157       2.98252678       2.77835083
O       -0.84439468       1.61323547       3.15866470
C       -2.06376266       1.19804955       3.29059219
O       -2.26463699       0.18087196       3.82985306
O       -2.97061539       2.09811401       2.63525772
H       -2.60788345       3.50560379       1.30358505
H       -2.88887405       4.01326180       2.92530441
H       -0.42483330       3.60635376       3.55871201
H       -0.15154839       3.03179359       1.91832733
10
Properties=species:S:1:pos:R:3 name=EC mapped_smiles="[C:1]1([H:7])([H:8])[C:2]([H:9])([H:10])[O:3][C:4](=[O:5])[O:6]1" pbc="F F F"
C        2.57331848      -2.34801102      -4.07648849
C        2.87722397      -1.13380051      -3.22395325
O        3.64440918      -0.32565880      -4.15213394
C        3.14389610      -0.57984161      -5.44348907
O        3.26449203       0.05639839      -6.44019318
O        2.59698105      -1.79563904      -5.37781525
H        1.62161636      -2.77062225      -3.81570053
H        3.24782181      -3.14342499      -4.02058411
H        3.36610794      -1.24985123      -2.27030563
H        2.00697899      -0.48610115      -3.21207428
10
Properties=species:S:1:pos:R:3 name=EC mapped_smiles="[C:1]1([H:7])([H:8])[C:2]([H:9])([H:10])[O:3][C:4](=[O:5])[O:6]1" pbc="F F F"
C        5.35422134       2.48114014      -3.81407547
C        4.40850830       2.63721657      -2.62129974
O        5.13711929       3.47874069      -1.66689301
C        6.21608734       3.92329979      -2.25758362
O        6.96013260       4.71813393      -1.72401428
O        6.48462296       3.23673439      -3.41288757
H        4.99183273       2.90546608      -4.80409241
H        5.58362198       1.43289375      -3.90361023
H        4.15748596       1.71122169      -2.03569794
H        3.53610992       3.14666939      -2.91267014
10
Properties=species:S:1:pos:R:3 name=EC mapped_smiles="[C:1]1([H:7])([H:8])[C:2]([H:9])([H:10])[O:3][C:4](=[O:5])[O:6]1" pbc="F F F"
C       -3.26702118      -5.02303505      -1.77856445
C       -2.93835449      -4.58954048      -0.36188507
O       -1.98328400      -5.69721603       0.05633545
C       -2.27579880      -6.73201942      -0.75578308
O       -1.85036087      -7.82724571      -0.47961044
O       -3.01259995      -6.40288925      -1.83417702
H       -2.70955658      -4.46497536      -2.52652359
H       -4.34973526      -4.80377960      -2.03002930
H       -3.83168411      -4.65124702       0.30363655
H       -2.45257187      -3.60445213      -0.26521301
10
Properties=species:S:1:pos:R:3 name=EC mapped_smiles="[C:1]1([H:7])([H:8])[C:2]([H:9])([H:10])[O:3][C:4](=[O:5])[O:6]1" pbc="F F F"
C        1.17843056       5.17609978       0.98327637
C        1.92451286       4.20520210       1.80033493
O        1.09920311       3.97830963       2.93893814
C       -0.16243362       4.56856346       2.73479462
O       -1.06327438       4.46351051       3.52494049
O       -0.22754288       5.07063103       1.46458817
H        1.23570824       4.96899986      -0.13589859
H        1.54153824       6.20467567       1.23075867
H        2.91147423       4.59390640       2.04433060
H        2.07210159       3.20298195       1.35829163
10
Properties=species:S:1:pos:R:3 name=EC mapped_smiles="[C:1]1([H:7])([H:8])[C:2]([H:9])([H:10])[O:3][C:4](=[O:5])[O:6]1" pbc="F F F"
C       -4.52982903      -0.77259445      -6.94157028
C       -4.34824562       0.69871521      -6.67008400
O       -2.89116478       0.91576767      -6.58130264
C       -2.31468964      -0.25573349      -6.79090118
O       -1.12032127      -0.41259766      -6.85951042
O       -3.22630882      -1.27051544      -6.85263443
H       -4.92221832      -1.00680923      -7.95348549
H       -5.13642883      -1.33469391      -6.24668503
H       -4.86518669       1.12687683      -5.74806023
H       -4.71109009       1.32865906      -7.45837593
10
Properties=species:S:1:pos:R:3 name=EC mapped_smiles="[C:1]1([H:7])([H:8])[C:2]([H:9])([H:10])[O:3][C:4](=[O:5])[O:6]1" pbc="F F F"
C        8.39120865      -1.04117966       0.85826492
C        8.51224899      -1.80132103      -0.42132378
O        7.60644531      -2.91716003      -0.32179642
C        7.04894638      -2.78013992       0.94221115
O        6.08398056      -3.40542412       1.36499023
O        7.65897751      -1.88325500       1.68298531
H        7.92870712      -0.06136894       0.74913406
H        9.28818130      -0.89582634       1.36624908
H        9.44144821      -2.18303680      -0.67726898
H        8.25081253      -1.28524590      -1.35672379
10
Properties=species:S:1:pos:R:3 name=EC mapped_smiles="[C:1]1([H:7])([H:8])[C:2]([H:9])([H:10])[O:3][C:4](=[O:5])[O:6]1" pbc="F F F"
C       -4.21290207       0.07076263      -0.08196259
C       -3.68268204      -1.15566444       0.74226761
O       -4.41138077      -1.15544891       1.96081161
C       -5.50759888      -0.34501076       1.82573700
O       -6.42974854      -0.23884773       2.55224991
O       -5.36315155       0.45421219       0.71144485
H       -4.53741074      -0.03238106      -1.17999649
H       -3.52104950       0.91666222      -0.04933929
H       -2.61535263      -0.96848679       1.03426743
H       -3.80475235      -2.12485313       0.26285553
10
Properties=species:S:1:pos:R:3 name=EC mapped_smiles="[C:1]1([H:7])([H:8])[C:2]([H:9])([H:10])[O:3][C:4](=[O:5])[O:6]1" pbc="F F F"
C       -3.97600365      -2.23515701      -1.50431442
C       -4.39395905      -0.95441437      -0.74996567
O       -3.66605186      -0.97785187       0.49336433
C       -2.75826836      -2.00665665       0.47587776
O       -2.06299591      -2.12538528       1.46751022
O       -2.94420624      -2.74960709      -0.66427803
H       -3.52598190      -2.06909561      -2.44922256
H       -4.75037384      -3.10327530      -1.62668419
H       -5.42512131      -0.83959198      -0.53260422
H       -4.12264061      -0.04579544      -1.36788368
10
Properties=species:S:1:pos:R:3 name=EC mapped_smiles="[C:1]1([H:7])([H:8])[C:2]([H:9])([H:10])[O:3][C:4](=[O:5])[O:6]1" pbc="F F F"
C       -1.19826508       4.20386505      -3.76072502
C       -0.23426437       3.30129623      -4.55337524
O       -0.58625031       3.61526680      -5.91817474
C       -1.87876511       4.08914185      -5.91486740
O       -2.54137421       4.33429337      -6.87829971
O       -2.30570984       4.41808128      -4.69363785
H       -0.77191544       5.22112465      -3.60305405
H       -1.51213837       3.79711723      -2.80121994
H       -0.40073395       2.26528358      -4.48729134
H        0.78578568       3.65296936      -4.29262543
10
Properties=species:S:1:pos:R:3 name=EC mapped_smiles="[C:1]1([H:7])([H:8])[C:2]([H:9])([H:10])[O:3][C:4](=[O:5])[O:6]1" pbc="F F F"
C       -0.59343719      -1.84800720       6.81715012
C       -0.22104263      -0.36206818       6.99642944
O        0.51209641      -0.01270866       5.76113892
C        0.80513573      -1.19187546       5.13824844
O        1.23379898      -1.35586929       4.02455139
O        0.46805000      -2.30552673       5.91331863
H       -1.48026085      -2.03606796       6.17800140
H       -0.81563568      -2.48011017       7.69286346
H        0.51835060      -0.13566208       7.78169632
H       -1.05689812       0.34328079       7.20745087
10
Properties=species:S:1:pos:R:3 name=EC mapped_smiles="[C:1]1([H:7])([H:8])[C:2]([H:9])([H:10])[O:3][C:4](=[O:5])[O:6]1" pbc="F F F"
C       -4.40607834      -4.48571014      -2.25043678
C       -3.63618469      -3.40350723      -3.02867126
O       -3.53432274      -3.93301010      -4.37624931
C       -4.22611427      -5.07011223      -4.44044876
O       -4.37453079      -5.66523361      -5.47392845
O       -4.71705055      -5.47792244      -3.21664047
H       -5.35650253      -4.14067841      -1.91463661
H       -3.84859467      -5.07098579      -1.50705719
H       -2.63560867      -3.26704788      -2.60468674
H       -4.14603043      -2.43076515      -3.20194054
10
Properties=species:S:1:pos:R:3 name=EC mapped_smiles="[C:1]1([H:7])([H:8])[C:2]([H:9])([H:10])[O:3][C:4](=[O:5])[O:6]1" pbc="F F F"
C       -3.90763092      -1.35020447      -5.23322296
C       -3.67279053      -2.91243744      -5.26601601
O       -3.50469589      -3.32521057      -3.93095016
C       -3.24853897      -2.20946121      -3.23024368
O       -2.91189575      -2.20486832      -2.07215309
O       -3.51139069      -1.09759140      -3.93157578
H       -4.91582489      -0.96039200      -5.34338379
H       -3.36310196      -0.69810104      -5.96023178
H       -2.82776260      -3.21104813      -5.89599228
H       -4.50632477      -3.64385223      -5.57171822
10
Properties=species:S:1:pos:R:3 name=EC mapped_smiles="[C:1]1([H:7])([H:8])[C:2]([H:9])([H:10])[O:3][C:4](=[O:5])[O:6]1" pbc="F F F"
C       -3.95796967      -3.53280640      -2.76692581
C       -2.81834221      -2.82973862      -3.43141556
O       -3.27681923      -1.58035660      -3.58063126
C       -4.62170982      -1.51726913      -3.49499893
O       -5.19014359      -0.47774506      -3.65370560
O       -5.14298248      -2.75305176      -3.11348343
H       -3.84687805      -3.50486755      -1.70323563
H       -4.03330231      -4.63296890      -2.99507523
H       -2.68950272      -3.23727798      -4.44507217
H       -1.89959908      -2.85213089      -2.91377640
10
Properties=species:S:1:pos:R:3 name=EC mapped_smiles="[C:1]1([H:7])([H:8])[C:2]([H:9])([H:10])[O:3][C:4](=[O:5])[O:6]1" pbc="F F F"
C       -1.68065262       0.80446243       5.07998276
C       -1.87938118       0.63018417       3.48972321
O       -0.70988083      -0.20483017       3.13572311
C        0.17231369      -0.07137489       4.12797165
O        1.24678802      -0.61640549       4.03709412
O       -0.31848717       0.61275482       5.23283768
H       -2.23479652       0.07214546       5.62973404
H       -1.90808105       1.82551003       5.47445297
H       -1.66944695       1.63010025       3.13156509
H       -2.85106277       0.24271393       3.18522644
10
Properties=species:S:1:pos:R:3 name=EC mapped_smiles="[C:1]1([H:7])([H:8])[C:2]([H:9])([H:10])[O:3][C:4](=[O:5])[O:6]1" pbc="F F F"
C       -4.81053543      -6.09915161       5.01467514
C       -3.67441559      -6.30212784       5.90635300
O       -2.44894981      -6.34087753       5.07606125
C       -2.82586861      -6.19577789       3.79894638
O       -2.10945129      -6.05779457       2.88703156
O       -4.17642593      -5.97654343       3.68358231
H       -5.48114777      -5.30957031       5.19163895
H       -5.42377663      -6.98832703       4.98828125
H       -3.68844032      -7.25783920       6.50930405
H       -3.50748444      -5.58131218       6.69235229
10
Properties=species:S:1:pos:R:3 name=EC mapped_smiles="[C:1]1([H:7])([H:8])[C:2]([H:9])([H:10])[O:3][C:4](=[O:5])[O:6]1" pbc="F F F"
C       -0.63090515       0.35500717      -7.98546219
C       -0.81447601       0.25317764      -6.48248672
O       -1.69446945      -0.86893082      -6.25802994
C       -2.33811188      -1.10811615      -7.44174576
O       -3.27750778      -1.89661026      -7.50634766
O       -1.88519669      -0.27542877      -8.43146515
H        0.26387405       0.04301453      -8.46905518
H       -0.63530731       1.36684036      -8.31278801
H       -1.38501740       1.12651062      -6.09309959
H        0.15775681       0.18056870      -5.85416412
10
Properties=species:S:1:pos:R:3 name=EC mapped_smiles="[C:1]1([H:7])([H:8])[C:2]([H:9])([H:10])[O:3][C:4](=[O:5])[O:6]1" pbc="F F F"
C       -2.75100899       0.25624466      -2.72805405
C       -2.79298973       1.48283386      -3.68041611
O       -2.23595619       0.97488785      -4.90845108
C       -1.71381950      -0.21946716      -4.68778992
O       -1.24939537      -0.89569855      -5.57094955
O       -1.87769890      -0.69002151      -3.42865372
H       -3.72503090      -0.36938858      -2.52880478
H       -2.30957603       0.55755234      -1.83821106
H       -2.19309425       2.26626587      -3.35316086
H       -3.78199959       1.91604996      -3.81138229
10
Properties=species:S:1:pos:R:3 name=EC mapped_smiles="[C:1]1([H:7])([H:8])[C:2]([H:9])([H:10])[O:3][C:4](=[O:5])[O:6]1" pbc="F F F"
C       -4.12725449       3.67818260       1.30505943
C       -3.23108292       3.40592575       0.05515289
O       -2.67090225       2.11816406       0.32403755
C       -3.44539642       1.46913910       1.30199051
O       -3.44320679       0.33534241       1.60450363
O       -4.31491470       2.40348625       1.83322525
H       -5.07256317       4.14883614       1.03746033
H       -3.60955429       4.36537170       2.05105209
H       -2.40434647       4.18592072       0.01410866
H       -3.71223831       3.26857185      -0.93576431
10
Properties=species:S:1:pos:R:3 name=EC mapped_smiles="[C:1]1([H:7])([H:8])[C:2]([H:9])([H:10])[O:3][C:4](=[O:5])[O:6]1" pbc="F F F"
C       -0.47688293      -4.33705902       1.08986092
C       -0.72205734      -3.35097885       2.17824554
O       -1.70805740      -2.48391724       1.65124702
C       -1.87553406      -2.85136795       0.26256180
O       -2.50578308      -2.17705154      -0.53156853
O       -1.21050644      -3.93420029      -0.05749512
H       -0.79152679      -5.38589096       1.36680031
H        0.53374481      -4.46002579       0.77879143
H        0.24702072      -2.81822586       2.42979050
H       -1.12042236      -3.62924957       3.17937088
10
Properties=species:S:1:pos:R:3 name=EC mapped_smiles="[C:1]1([H:7])([H:8])[C:2]([H:9])([H:10])[O:3][C:4](=[O:5])[O:6]1" pbc="F F F"
C       -3.08115578      -0.50366974      -4.51689720
C       -3.73466492       0.80462837      -4.06610107
O       -2.60895538       1.57337570      -3.60107803
C       -1.46319771       0.84727859      -3.52600098
O       -0.45979309       1.20909882      -2.91611671
O       -1.64463806      -0.37760162      -4.10568428
H       -3.06973267      -0.81684113      -5.61253738
H       -3.48359871      -1.44440651      -4.03750801
H       -4.45277214       0.64540100      -3.24149132
H       -4.20851326       1.37712097      -4.91218567
10
Properties=species:S:1:pos:R:3 name=EC mapped_smiles="[C:1]1([H:7])([H:8])[C:2]([H:9])([H:10])[O:3][C:4](=[O:5])[O:6]1" pbc="F F F"
C       -0.03402901      -2.55824280       3.15071106
C        0.43083763      -3.99683189       3.22464752
O        1.69854355      -3.94367981       2.61805725
C        1.80349922      -2.92244720       1.81803131
O        2.59516144      -2.72982788       0.95784760
O        0.75210190      -2.05529785       2.06832695
H        0.20145988      -2.02591705       4.03910828
H       -1.14370537      -2.44332504       2.98530579
H       -0.24041557      -4.69377327       2.65427017
H        0.51211357      -4.46189117       4.21323395
10
Properties=species:S:1:pos:R:3 name=EC mapped_smiles="[C:1]1([H:7])([H:8])[C:2]([H:9])([H:10])[O:3][C:4](=[O:5])[O:6]1" pbc="F F F"
C       -4.34891701       3.61714363       1.38393021
C       -3.36106491       2.83351898       0.38257599
O       -4.00459671       3.01358223      -0.89458466
C       -5.13915443       3.79943466      -0.76943207
O       -5.79570007       4.14085770      -1.73591995
O       -5.38774490       4.08964157       0.50816345
H       -3.94742393       4.52281952       1.88589096
H       -4.79829407       3.02376556       2.22289276
H       -3.34398270       1.74123383       0.55567551
H       -2.34755135       3.20136833       0.35317612
10
Properties=species:S:1:pos:R:3 name=EC mapped_smiles="[C:1]1([H:7])([H:8])[C:2]([H:9])([H:10])[O:3][C:4](=[O:5])[O:6]1" pbc="F F F"
C        2.91364098      -2.00821304       1.81344986
C        3.63931847      -3.12016678       1.08341980
O        3.85249329      -2.53805923      -0.29677773
C        3.41185188      -1.28459549      -0.25063705
O        3.40465164      -0.59150696      -1.22342110
O        2.98814201      -0.95632935       0.91530991
H        3.48607063      -1.85967827       2.74389267
H        1.92023849      -2.10981369       2.08368111
H        3.04435730      -4.07742310       1.05590057
H        4.67478371      -3.32702255       1.50858688
