10
Properties=species:S:1:pos:R:3 name=EC mapped_smiles="[C:1]1([H:7])([H:8])[C:2]([H:9])([H:10])[O:3][C:4](=[O:5])[O:6]1" pbc="F F F"
C       -1.12418747      -8.69865417       1.91073227
C       -2.45032501      -8.15614319       2.45928955
O       -3.07415009      -7.83607101       1.21911621
C       -2.20509720      -7.99187469       0.15705872
O       -2.30696487      -7.62797546      -0.97690964
O       -1.04663086      -8.38146973       0.56620407
H       -1.13617325      -9.76190567       2.03946686
H       -0.21518707      -8.22241974       2.36651230
H       -2.32109833      -7.19927979       3.04870224
H       -3.07284546      -8.79483795       2.96687317
10
Properties=species:S:1:pos:R:3 name=EC mapped_smiles="[C:1]1([H:7])([H:8])[C:2]([H:9])([H:10])[O:3][C:4](=[O:5])[O:6]1" pbc="F F F"
C       -3.27667809       4.93922424       1.63741302
C       -4.63795280       5.46562576       1.28978920
O       -5.26282692       5.80693054       2.48279190
C       -4.32238197       5.93626785       3.40096855
O       -4.57635307       6.31476593       4.52700233
O       -3.10862923       5.66199493       2.89691162
H       -2.49515343       5.08102036       0.87971878
H       -3.30835152       3.86620331       1.79984856
H       -5.15742683       4.77113342       0.70591354
H       -4.64160728       6.36566162       0.75455284
10
Properties=species:S:1:pos:R:3 name=EC mapped_smiles="[C:1]1([H:7])([H:8])[C:2]([H:9])([H:10])[O:3][C:4](=[O:5])[O:6]1" pbc="F F F"
C        0.19654655      -2.70599174       5.20505142
C       -0.02746582      -3.77687454       4.18257904
O       -1.33523178      -4.18111038       4.34686661
C       -1.96615028      -3.12503624       4.92377853
O       -3.17346764      -3.04496193       4.91431046
O       -1.11075211      -2.24156761       5.45593643
H        0.82481575      -1.83024216       4.94093323
H        0.58218765      -3.23149681       6.06779480
H        0.59742546      -4.64870834       4.27020645
H        0.12430382      -3.53142166       3.07831955
10
Properties=species:S:1:pos:R:3 name=EC mapped_smiles="[C:1]1([H:7])([H:8])[C:2]([H:9])([H:10])[O:3][C:4](=[O:5])[O:6]1" pbc="F F F"
C        2.99373627      -2.37334824       4.00918007
C        3.24793625      -2.20574570       2.54108429
O        2.36902618      -3.05241394       1.90336609
C        1.55067062      -3.60147285       2.83664322
O        0.58998108      -4.21917915       2.56006813
O        1.79034424      -3.17680168       4.02896881
H        2.90935135      -1.42504501       4.59160042
H        3.80706787      -3.01669121       4.47959137
H        4.25681305      -2.49166107       2.30721283
H        3.10474396      -1.14042091       2.25524330
10
Properties=species:S:1:pos:R:3 name=EC mapped_smiles="[C:1]1([H:7])([H:8])[C:2]([H:9])([H:10])[O:3][C:4](=[O:5])[O:6]1" pbc="F F F"
C        5.73586845      -3.51066589       5.20028114
C        7.19693947      -3.11523438       4.89510155
O        7.14357185      -2.49236679       3.67991257
C        5.84089470      -2.41166687       3.26509476
O        5.41175079      -2.08093262       2.18977165
O        5.02866745      -2.81664467       4.20395660
H        5.32944870      -3.24368095       6.19275093
H        5.54981613      -4.50615311       4.96576881
H        7.85432243      -3.99696159       4.86028099
H        7.62203217      -2.38171768       5.57303047
10
Properties=species:S:1:pos:R:3 name=EC mapped_smiles="[C:1]1([H:7])([H:8])[C:2]([H:9])([H:10])[O:3][C:4](=[O:5])[O:6]1" pbc="F F F"
C        2.16231155       3.51749039      -1.00202370
C        2.03547668       4.93786240      -1.42465591
O        0.66023445       5.13700867      -1.74123764
C        0.03896713       4.02951431      -1.65459251
O       -1.14599037       3.91266251      -1.84342384
O        0.94768333       2.99335480      -1.49012756
H        2.31232834       3.36641693       0.02346039
H        3.08123779       3.09410477      -1.48049164
H        2.67921638       5.18603134      -2.28676224
H        2.34540367       5.62641907      -0.63613510
10
Properties=species:S:1:pos:R:3 name=EC mapped_smiles="[C:1]1([H:7])([H:8])[C:2]([H:9])([H:10])[O:3][C:4](=[O:5])[O:6]1" pbc="F F F"
C        0.06959915       4.41254616       1.81995773
C       -0.51701927       5.66048622       1.25197601
O        0.65953827       6.59378433       1.23772812
C        1.50926971       6.11170769       2.22893906
O        2.49975967       6.62771225       2.66885376
O        1.16727638       4.85587502       2.62710571
H        0.50184250       3.68692207       1.16275406
H       -0.57704735       3.89546013       2.53986740
H       -1.34840393       6.04774666       1.77964783
H       -0.96191406       5.55099106       0.27401352
10
Properties=species:S:1:pos:R:3 name=EC mapped_smiles="[C:1]1([H:7])([H:8])[C:2]([H:9])([H:10])[O:3][C:4](=[O:5])[O:6]1" pbc="F F F"
C        6.54453850       5.10841751       5.39540863
C        6.58738899       3.84547806       4.55157852
O        7.75976562       3.07772446       5.01556396
C        8.27405167       3.70178986       6.10400009
O        9.26822662       3.36959457       6.69269562
O        7.43067932       4.76368332       6.47713089
H        5.58536911       5.43491745       5.75606537
H        6.95460510       5.92161942       4.77510452
H        6.72253799       3.88314819       3.48354721
H        5.75260162       3.16375732       4.90214539
10
Properties=species:S:1:pos:R:3 name=EC mapped_smiles="[C:1]1([H:7])([H:8])[C:2]([H:9])([H:10])[O:3][C:4](=[O:5])[O:6]1" pbc="F F F"
C        5.70967102       0.33098602       2.00799751
C        4.48043060       0.01466751       1.16124725
O        5.12958527      -0.85777283       0.17079163
C        6.51908875      -0.56831741       0.03004456
O        7.26992035      -1.10679626      -0.75709152
O        6.79599762       0.25917816       1.05366516
H        5.77788162      -0.47181320       2.75491524
H        5.55110168       1.28334427       2.48769760
H        4.04355621       0.88003159       0.64095879
H        3.65785980      -0.51123428       1.67548752
10
Properties=species:S:1:pos:R:3 name=EC mapped_smiles="[C:1]1([H:7])([H:8])[C:2]([H:9])([H:10])[O:3][C:4](=[O:5])[O:6]1" pbc="F F F"
C        1.18881607       0.92794418      -4.95682144
C        0.14455032       1.65451431      -4.08064270
O       -1.06838608       1.14115143      -4.67845154
C       -0.82196808       0.04742241      -5.43054771
O       -1.64527893      -0.64021301      -6.01853180
O        0.47037125      -0.21609306      -5.56809044
H        2.04059982       0.63999176      -4.40598488
H        1.50523376       1.60856247      -5.74412537
H        0.25516510       2.68104553      -4.16294098
H        0.27696991       1.49378586      -3.00532913
10
Properties=species:S:1:pos:R:3 name=EC mapped_smiles="[C:1]1([H:7])([H:8])[C:2]([H:9])([H:10])[O:3][C:4](=[O:5])[O:6]1" pbc="F F F"
C       -2.43865204       0.05534744      -5.59211922
C       -2.02843094      -0.48172188      -4.21648216
O       -1.14528656       0.51678276      -3.67930794
C       -1.21325684       1.57234955      -4.50691223
O       -0.54158783       2.59018898      -4.48067665
O       -2.11941147       1.41281319      -5.50731850
H       -3.54182053      -0.02650833      -5.76534843
H       -1.93788910      -0.41128349      -6.44660950
H       -1.37888336      -1.39151764      -4.19396782
H       -2.84931183      -0.78666878      -3.51844978
10
Properties=species:S:1:pos:R:3 name=EC mapped_smiles="[C:1]1([H:7])([H:8])[C:2]([H:9])([H:10])[O:3][C:4](=[O:5])[O:6]1" pbc="F F F"
C        2.28206635       3.06605911      -2.27828598
C        2.31559372       2.05839920      -3.39081955
O        3.56952286       2.40468979      -3.98326111
C        4.29428864       3.20583725      -3.12034988
O        5.36283112       3.76706314      -3.27632141
O        3.65054321       3.43279266      -1.95013046
H        1.85405731       2.62594986      -1.40194321
H        1.65016937       3.91550446      -2.49648476
H        1.56124115       2.19807434      -4.19752884
H        2.40067673       1.00904846      -3.06169701
10
Properties=species:S:1:pos:R:3 name=EC mapped_smiles="[C:1]1([H:7])([H:8])[C:2]([H:9])([H:10])[O:3][C:4](=[O:5])[O:6]1" pbc="F F F"
C       -7.50578499       6.87057114       4.16806412
C       -6.63027000       5.71546173       4.71139145
O       -6.26858902       6.20955658       6.05419350
C       -7.14741325       7.20192146       6.40140152
O       -7.21638680       7.71688652       7.47728729
O       -7.90337753       7.57580376       5.43111992
H       -8.42292404       6.53018951       3.70511055
H       -7.04408264       7.62490273       3.45586967
H       -5.76097298       5.56151390       4.08364105
H       -7.17182732       4.85088158       4.92196083
10
Properties=species:S:1:pos:R:3 name=EC mapped_smiles="[C:1]1([H:7])([H:8])[C:2]([H:9])([H:10])[O:3][C:4](=[O:5])[O:6]1" pbc="F F F"
C       -2.81563759       2.67453384      -1.41039276
C       -3.95256615       1.91568184      -0.68772507
O       -4.88648224       3.02434349      -0.41836166
C       -4.57975388       4.10473824      -1.26175308
O       -5.18478584       5.10947800      -1.43846893
O       -3.45074654       3.86526680      -1.92851257
H       -2.46350479       2.06948471      -2.21902466
H       -1.97992706       2.88841629      -0.73025513
H       -3.58039665       1.48395920       0.23949814
H       -4.52018356       1.15979004      -1.22234344
10
Properties=species:S:1:pos:R:3 name=EC mapped_smiles="[C:1]1([H:7])([H:8])[C:2]([H:9])([H:10])[O:3][C:4](=[O:5])[O:6]1" pbc="F F F"
C       -0.40896606       3.17325211       3.78462219
C        0.62265015       2.19094658       4.11041260
O        1.77312469       2.45034599       3.28491974
C        1.49010849       3.59689903       2.59229279
O        2.25515366       4.07062531       1.80645370
O        0.35168076       4.15294266       3.02974319
H       -0.91893387       3.59914398       4.68558502
H       -1.23286819       2.88298035       3.03341293
H        0.44227982       1.14219475       4.02359772
H        1.05295181       2.26445198       5.10803604
10
Properties=species:S:1:pos:R:3 name=EC mapped_smiles="[C:1]1([H:7])([H:8])[C:2]([H:9])([H:10])[O:3][C:4](=[O:5])[O:6]1" pbc="F F F"
C       -0.63315392      -4.51414680      -0.21547318
C        0.45148849      -4.20696831      -1.10332870
O        0.02193451      -3.07841873      -1.80110359
C       -1.20005989      -2.68831825      -1.52657890
O       -1.79903603      -1.73973465      -2.00100708
O       -1.70404434      -3.56546402      -0.57625961
H       -0.37845230      -4.41673088       0.79592514
H       -0.99067307      -5.57177353      -0.38017654
H        0.60133171      -5.04842377      -1.81669426
H        1.35704041      -4.06277275      -0.58113098
10
Properties=species:S:1:pos:R:3 name=EC mapped_smiles="[C:1]1([H:7])([H:8])[C:2]([H:9])([H:10])[O:3][C:4](=[O:5])[O:6]1" pbc="F F F"
C       -3.25856400       7.56914520       0.69098282
C       -4.39493179       7.67246056      -0.32679176
O       -5.15178299       6.37360382      -0.07391167
C       -4.77121353       5.82170868       1.11175537
O       -5.33636856       4.90868187       1.64563370
O       -3.80194473       6.52303696       1.63460922
H       -3.00802231       8.47912216       1.22288132
H       -2.25922012       7.32875824       0.26797104
H       -4.07031631       7.73195648      -1.35082054
H       -4.96960831       8.57132339      -0.15860748
10
Properties=species:S:1:pos:R:3 name=EC mapped_smiles="[C:1]1([H:7])([H:8])[C:2]([H:9])([H:10])[O:3][C:4](=[O:5])[O:6]1" pbc="F F F"
C        1.06891632      -4.02881241      -0.88744736
C        1.39334488      -4.21500206       0.63465118
O        2.72406197      -3.76404762       0.76440811
C        3.28826332      -3.80361176      -0.46648407
O        4.35040665      -3.31146812      -0.69133377
O        2.43799019      -4.30602646      -1.36756134
H        0.80978394      -3.09863472      -1.36069107
H        0.37232971      -4.76506042      -1.28787994
H        1.42650223      -5.18246460       1.12827301
H        0.71595764      -3.71104050       1.37191391
10
Properties=species:S:1:pos:R:3 name=EC mapped_smiles="[C:1]1([H:7])([H:8])[C:2]([H:9])([H:10])[O:3][C:4](=[O:5])[O:6]1" pbc="F F F"
C        8.58637238       2.25784302       0.26458359
C        9.21775818       2.31918144      -1.17625427
O        8.53866577       1.22812271      -1.92568588
C        7.45602417       0.88716125      -1.31494141
O        6.60906219       0.13232613      -1.70256042
O        7.32404327       1.51543617      -0.00864029
H        8.38352203       3.26264381       0.57369614
H        9.17844772       1.70379448       0.96136475
H       10.36293793       2.04672813      -1.24181366
H        8.98921585       3.23312569      -1.63473129
10
Properties=species:S:1:pos:R:3 name=EC mapped_smiles="[C:1]1([H:7])([H:8])[C:2]([H:9])([H:10])[O:3][C:4](=[O:5])[O:6]1" pbc="F F F"
C       -5.41050720      -1.26836205      -1.30528259
C       -5.78576660      -0.27178955      -2.43094635
O       -6.70116425       0.66291809      -1.75387383
C       -6.91851044       0.33790779      -0.52294350
O       -7.64952850       0.93792534       0.21297455
O       -6.15344620      -0.69617844      -0.19390488
H       -4.36035919      -1.33649063      -1.07247925
H       -5.85285568      -2.26392365      -1.44007874
H       -6.20961761      -0.65288162      -3.36865616
H       -4.93135071       0.29983711      -2.86831284
10
Properties=species:S:1:pos:R:3 name=EC mapped_smiles="[C:1]1([H:7])([H:8])[C:2]([H:9])([H:10])[O:3][C:4](=[O:5])[O:6]1" pbc="F F F"
C        6.72034454       1.98189926       2.77715302
C        7.57520676       3.22028732       2.67737579
O        6.83378029       4.14539909       1.84078979
C        5.79362869       3.48256302       1.37857819
O        5.01230621       3.88002396       0.54153442
O        5.61127853       2.24064636       1.93853378
H        6.31013107       1.77438736       3.80313110
H        7.14215660       1.06819153       2.41633224
H        8.53717041       3.00834656       2.28250885
H        7.64665413       3.70755577       3.65920639
10
Properties=species:S:1:pos:R:3 name=EC mapped_smiles="[C:1]1([H:7])([H:8])[C:2]([H:9])([H:10])[O:3][C:4](=[O:5])[O:6]1" pbc="F F F"
C       -0.89532089      -3.33575058      -4.75584984
C       -0.10092545      -4.02721786      -3.53558159
O        1.19384003      -4.46752167      -4.23977089
C        1.05763245      -4.31571198      -5.60370827
O        1.90719604      -4.71134377      -6.34578705
O       -0.06770325      -3.64010811      -5.95057487
H       -1.13027382      -2.24583054      -4.73382378
H       -1.83699989      -3.88074112      -4.88536453
H       -0.57121277      -4.93458557      -3.15162468
H        0.06699371      -3.34897995      -2.66885948
10
Properties=species:S:1:pos:R:3 name=EC mapped_smiles="[C:1]1([H:7])([H:8])[C:2]([H:9])([H:10])[O:3][C:4](=[O:5])[O:6]1" pbc="F F F"
C        7.16309357      -1.81838799       5.26358795
C        6.74471664      -2.93754959       4.34363937
O        5.94992447      -3.75486374       5.19406891
C        5.47150803      -3.00290871       6.20921326
O        4.68759918      -3.42882156       7.04452896
O        6.14275742      -1.80149078       6.25100136
H        7.23481369      -0.85953522       4.83189774
H        8.07588959      -2.01086807       5.80479622
H        7.58664703      -3.44292831       3.95774460
H        6.16245270      -2.70987511       3.43682098
10
Properties=species:S:1:pos:R:3 name=EC mapped_smiles="[C:1]1([H:7])([H:8])[C:2]([H:9])([H:10])[O:3][C:4](=[O:5])[O:6]1" pbc="F F F"
C       -2.73574448      -1.61590958       5.82587433
C       -2.52163696      -1.70929909       7.35811615
O       -2.00905991      -3.06182480       7.63572693
C       -2.14582443      -3.80292702       6.52250671
O       -1.98291016      -5.01284027       6.40435410
O       -2.55570984      -3.01850510       5.51226807
H       -1.98447037      -1.08309555       5.22004700
H       -3.76765060      -1.35713577       5.50270844
H       -3.43433762      -1.53405762       7.91837692
H       -1.81945038      -0.95337677       7.63393402
10
Properties=species:S:1:pos:R:3 name=EC mapped_smiles="[C:1]1([H:7])([H:8])[C:2]([H:9])([H:10])[O:3][C:4](=[O:5])[O:6]1" pbc="F F F"
C        0.63048363      -1.49685669       3.21722794
C       -0.45900726      -0.48166847       3.38011169
O        0.19770622       0.72518539       2.86231804
C        1.52930069       0.54528809       2.68277168
O        2.32180786       1.34973907       2.29673576
O        1.81019592      -0.73574638       3.11021042
H        0.47883797      -2.18124771       2.37056351
H        0.83988762      -2.14316177       4.11419296
H       -0.84088135      -0.28344917       4.39086914
H       -1.39297676      -0.68386269       2.82590103
10
Properties=species:S:1:pos:R:3 name=EC mapped_smiles="[C:1]1([H:7])([H:8])[C:2]([H:9])([H:10])[O:3][C:4](=[O:5])[O:6]1" pbc="F F F"
C       -3.49039459      -2.07080269      -0.09606361
C       -3.15885544      -1.43381500       1.26342201
O       -3.75396729      -2.42256165       2.17962265
C       -4.05374908      -3.62355423       1.53133011
O       -4.50365448      -4.58000755       2.16572571
O       -3.87341690      -3.40432930       0.18819809
H       -2.66271591      -2.06429672      -0.81163788
H       -4.40410614      -1.63044739      -0.55865860
H       -3.62779999      -0.49348450       1.40476036
H       -2.07939911      -1.33367920       1.49232483
10
Properties=species:S:1:pos:R:3 name=EC mapped_smiles="[C:1]1([H:7])([H:8])[C:2]([H:9])([H:10])[O:3][C:4](=[O:5])[O:6]1" pbc="F F F"
C       -4.29456711      -2.30907440       5.35183334
C       -5.78667641      -2.43991852       5.08782959
O       -6.32629776      -1.61390495       6.15108109
C       -5.37960434      -0.72254181       6.65814209
O       -5.51019287       0.03874969       7.53757095
O       -4.18621254      -1.03167152       6.08462143
H       -3.74286461      -2.18383217       4.45563889
H       -3.85622597      -3.17623138       5.88819122
H       -6.04063988      -3.51637268       5.17499161
H       -6.14904213      -1.96752930       4.17041397
10
Properties=species:S:1:pos:R:3 name=EC mapped_smiles="[C:1]1([H:7])([H:8])[C:2]([H:9])([H:10])[O:3][C:4](=[O:5])[O:6]1" pbc="F F F"
C       -8.30181885      -5.67596817      -4.71893883
C       -9.69693947      -5.22400665      -4.39885139
O       -9.50996017      -4.33947372      -3.27119064
C       -8.20330048      -4.10260201      -3.02158356
O       -7.80756187      -3.44106293      -2.10009384
O       -7.48874855      -4.80760574      -3.82005501
H       -7.84275436      -5.56589127      -5.69907570
H       -8.12338448      -6.70060539      -4.46628761
H      -10.35978317      -5.98263550      -4.08337784
H      -10.13054657      -4.65566635      -5.27105713
10
Properties=species:S:1:pos:R:3 name=EC mapped_smiles="[C:1]1([H:7])([H:8])[C:2]([H:9])([H:10])[O:3][C:4](=[O:5])[O:6]1" pbc="F F F"
C        2.75108719       5.23549461      -3.60958099
C        1.62787247       4.72533417      -2.83694458
O        2.15810776       4.05162239      -1.73637581
C        3.54399490       4.13987350      -1.84267616
O        4.28117752       3.50480461      -1.15009689
O        3.91570663       5.14080620      -2.79333687
H        2.69058609       6.23256111      -3.94624710
H        2.97311783       4.52417564      -4.47379684
H        0.97672272       4.05469894      -3.35694695
H        0.99878311       5.54413986      -2.52593994
10
Properties=species:S:1:pos:R:3 name=EC mapped_smiles="[C:1]1([H:7])([H:8])[C:2]([H:9])([H:10])[O:3][C:4](=[O:5])[O:6]1" pbc="F F F"
C       -0.72912407      -6.45919037      -2.15321732
C       -0.40411186      -7.96262169      -2.51700211
O       -0.49864578      -7.92875481      -4.01289749
C       -0.96820259      -6.68655014      -4.38818741
O       -1.26911736      -6.29220581      -5.48515701
O       -1.28551865      -5.84611511      -3.29256058
H        0.20963287      -5.96911621      -1.90874100
H       -1.48701668      -6.33879280      -1.39586258
H       -1.09771919      -8.62228966      -1.96068192
H        0.56318283      -8.23588943      -2.25412369
10
Properties=species:S:1:pos:R:3 name=EC mapped_smiles="[C:1]1([H:7])([H:8])[C:2]([H:9])([H:10])[O:3][C:4](=[O:5])[O:6]1" pbc="F F F"
C        3.28332520       4.84844017       3.02653885
C        3.67687225       4.06903267       1.76504135
O        2.46786880       3.32137299       1.49592972
C        1.77173615       3.26674080       2.64868927
O        0.78533554       2.62641716       2.72278595
O        2.22954559       4.02115250       3.66255951
H        2.88843727       5.88346291       2.75934219
H        4.13911057       4.99423599       3.65345001
H        4.51097107       3.34905624       1.84932709
H        3.90392685       4.77656746       0.96530914
10
Properties=species:S:1:pos:R:3 name=EC mapped_smiles="[C:1]1([H:7])([H:8])[C:2]([H:9])([H:10])[O:3][C:4](=[O:5])[O:6]1" pbc="F F F"
C        0.81681824      -5.89435196       6.00679779
C        0.05690384      -4.54232025       6.36566925
O       -0.06948471      -4.47909164       7.82885742
C        0.70682907      -5.46110725       8.30871201
O        1.04500580      -5.55969620       9.42367554
O        1.27272797      -6.20576477       7.33016968
H        1.67261314      -5.87760925       5.32140350
H        0.14290237      -6.66194725       5.65074921
H       -0.88988113      -4.43423462       5.80797577
H        0.60247231      -3.60783195       6.06819534
10
Properties=species:S:1:pos:R:3 name=EC mapped_smiles="[C:1]1([H:7])([H:8])[C:2]([H:9])([H:10])[O:3][C:4](=[O:5])[O:6]1" pbc="F F F"
C        5.42782974       3.62619591      -6.62363434
C        6.69316864       3.42379761      -7.49059486
O        6.57114029       2.03275681      -7.83443451
C        5.45567322       1.45888138      -7.39756203
O        5.03829575       0.33714485      -7.56969452
O        4.85547256       2.30370712      -6.55072021
H        4.65142822       4.19717026      -7.13826370
H        5.59722900       3.99463463      -5.65312195
H        7.65847778       3.66388893      -7.00101089
H        6.69539642       4.01294899      -8.39689159
10
Properties=species:S:1:pos:R:3 name=EC mapped_smiles="[C:1]1([H:7])([H:8])[C:2]([H:9])([H:10])[O:3][C:4](=[O:5])[O:6]1" pbc="F F F"
C       -5.05118179      -1.97568512       0.41161728
C       -5.04034805      -3.30438614      -0.42664337
O       -6.27119827      -3.88922882      -0.06369209
C       -6.99124527      -2.94886398       0.56343079
O       -8.14398193      -3.07206726       0.92358398
O       -6.33703995      -1.76193619       0.80474663
H       -4.81210709      -1.10267639      -0.16299057
H       -4.43464470      -2.06890869       1.29553604
H       -4.10997581      -3.91838074      -0.20139122
H       -5.17433548      -3.07800293      -1.51193428
10
Properties=species:S:1:pos:R:3 name=EC mapped_smiles="[C:1]1([H:7])([H:8])[C:2]([H:9])([H:10])[O:3][C:4](=[O:5])[O:6]1" pbc="F F F"
C       -1.20579147      -0.79461861       4.06554413
C       -2.16659546      -1.97891617       3.98185349
O       -3.15920258      -1.52644348       4.85820389
C       -2.86331177      -0.43572426       5.58215332
O       -3.56331635      -0.00597572       6.48788452
O       -1.65176773       0.02270508       5.21099663
H       -1.25756836      -0.18038940       3.16439629
H       -0.20276642      -1.09173012       4.21505547
H       -1.79354095      -2.89363480       4.43655396
H       -2.63488770      -2.24208450       3.03791618
10
Properties=species:S:1:pos:R:3 name=EC mapped_smiles="[C:1]1([H:7])([H:8])[C:2]([H:9])([H:10])[O:3][C:4](=[O:5])[O:6]1" pbc="F F F"
C        1.88888550       3.09376526       3.43742371
C        3.09534073       2.53520584       2.66716003
O        4.23583221       3.19560623       3.23438263
C        3.84424210       4.17641068       4.05799484
O        4.53998947       4.91754150       4.70266151
O        2.43392944       4.24805450       4.01139450
H        1.57718658       2.61078644       4.42291451
H        0.98804855       3.29614639       2.84379768
H        2.96427917       2.80994415       1.64149284
H        3.23450470       1.46089935       2.65988159
10
Properties=species:S:1:pos:R:3 name=EC mapped_smiles="[C:1]1([H:7])([H:8])[C:2]([H:9])([H:10])[O:3][C:4](=[O:5])[O:6]1" pbc="F F F"
C        2.62405396       5.05354691      -0.31085205
C        2.71446228       3.61831284       0.11472893
O        2.24077225       2.89844131      -1.04742241
C        2.70524979       3.65900803      -2.10227966
O        2.84472656       3.37599182      -3.24270630
O        2.90792847       4.90596390      -1.73202896
H        3.23820114       5.82278824       0.09983444
H        1.57993317       5.48024368      -0.13888168
H        2.07532883       3.35335541       0.91440964
H        3.74801254       3.26637268       0.42023659
10
Properties=species:S:1:pos:R:3 name=EC mapped_smiles="[C:1]1([H:7])([H:8])[C:2]([H:9])([H:10])[O:3][C:4](=[O:5])[O:6]1" pbc="F F F"
C        5.24854469      -1.03910828      -1.52980804
C        4.32780647      -1.07287979      -2.72415161
O        4.80495644       0.15040207      -3.33326530
C        5.31093025       1.00626373      -2.48457909
O        5.52498436       2.17097855      -2.58349800
O        5.62286949       0.35766983      -1.36461639
H        6.21478462      -1.45483780      -1.78968239
H        4.85729027      -1.33994293      -0.57849884
H        3.28794289      -0.93096542      -2.49010086
H        4.52557945      -1.95312881      -3.32082558
10
Properties=species:S:1:pos:R:3 name=EC mapped_smiles="[C:1]1([H:7])([H:8])[C:2]([H:9])([H:10])[O:3][C:4](=[O:5])[O:6]1" pbc="F F F"
C        1.82817078       4.05944633       1.34416962
C        0.60438728       4.90486145       1.33706665
O        0.37572861       5.28444672       2.73291779
C        1.44968033       4.96542168       3.42876434
O        1.51776505       5.23834038       4.62245178
O        2.31678963       4.30973625       2.68953323
H        2.59768486       4.42687798       0.64777374
H        1.64342499       2.97636795       1.18538666
H       -0.27490616       4.34889030       0.95763016
H        0.75989914       5.78937149       0.80791855
10
Properties=species:S:1:pos:R:3 name=EC mapped_smiles="[C:1]1([H:7])([H:8])[C:2]([H:9])([H:10])[O:3][C:4](=[O:5])[O:6]1" pbc="F F F"
C        1.35223579       0.67190933       5.83429527
C        1.13929558       0.16521454       4.43930817
O        0.83439827      -1.20650864       4.70048904
C        0.35802460      -1.35575867       5.92806625
O       -0.20068359      -2.27683449       6.42765808
O        0.52128792      -0.17560959       6.57602501
H        1.14574242       1.71220779       6.12922096
H        2.37121201       0.49318695       6.05780029
H        1.98394394       0.12557983       3.76880455
H        0.33005333       0.61701393       3.91583633
