7
Properties=species:S:1:pos:R:3 name=PF6 mapped_smiles="[P-:1]([F:2])([F:3])([F:4])([F:5])([F:6])[F:7]" pbc="F F F"
P        0.00000000       0.00000000       0.00000000
F       -0.10153580      -1.53966522       0.48009872
F       -1.59919357       0.20721436       0.24879074
F        0.19532394       0.33761597       1.57448578
F        0.13903427       1.54664612      -0.44014359
F        1.61284637      -0.16648102      -0.16952896
F       -0.18341827      -0.47230148      -1.53889465
7
Properties=species:S:1:pos:R:3 name=PF6 mapped_smiles="[P-:1]([F:2])([F:3])([F:4])([F:5])([F:6])[F:7]" pbc="F F F"
P       -3.01190376       2.10440445      -1.37615585
F       -4.30357170       1.44913101      -2.14827156
F       -2.97659683       0.73653793      -0.45379257
F       -2.01557350       1.37155914      -2.48557091
F       -1.70621681       2.72267914      -0.52925873
F       -3.21460152       3.48002625      -2.24422073
F       -4.07533646       2.86858749      -0.33245277
7
Properties=species:S:1:pos:R:3 name=PF6 mapped_smiles="[P-:1]([F:2])([F:3])([F:4])([F:5])([F:6])[F:7]" pbc="F F F"
P        3.65086365      -4.57643318       3.34195328
F        2.19001770      -4.19582748       2.69645691
F        2.96104050      -5.10620880       4.69340134
F        3.49327469      -6.08787918       2.72216415
F        5.18957520      -4.98380089       3.89979553
F        4.34440231      -4.12651253       1.97807312
F        3.78708839      -3.04222488       4.01858902
7
Properties=species:S:1:pos:R:3 name=PF6 mapped_smiles="[P-:1]([F:2])([F:3])([F:4])([F:5])([F:6])[F:7]" pbc="F F F"
P        0.00000000       0.00000000       0.00000000
F       -0.49130249       1.46476746       0.57042503
F        1.56312943       0.35177231       0.22047806
F       -0.02112198      -0.57761002       1.56570816
F        0.52322006      -1.37617874      -0.68585587
F       -1.51909637      -0.47072029      -0.31618309
F        0.05680466       0.60101318      -1.49618912
7
Properties=species:S:1:pos:R:3 name=PF6 mapped_smiles="[P-:1]([F:2])([F:3])([F:4])([F:5])([F:6])[F:7]" pbc="F F F"
P        4.79492950       4.28036880       6.03060722
F        4.40423012       5.01058578       4.59354019
F        3.94469261       2.97238541       5.52322578
F        6.23361778       3.70371056       5.37293053
F        5.13321495       3.56907463       7.49667168
F        5.62767029       5.66548920       6.48631859
F        3.40234756       5.00700760       6.65233421
7
Properties=species:S:1:pos:R:3 name=PF6 mapped_smiles="[P-:1]([F:2])([F:3])([F:4])([F:5])([F:6])[F:7]" pbc="F F F"
P        3.47044373       2.83417892       3.28152657
F        1.89321136       2.39825821       3.69184685
F        3.36528969       4.24407196       4.19945335
F        4.13189507       2.00729752       4.57568932
F        4.95667267       3.23708725       2.74279213
F        3.54260826       1.41382217       2.40458870
F        2.83740044       3.60583878       1.97474098
7
Properties=species:S:1:pos:R:3 name=PF6 mapped_smiles="[P-:1]([F:2])([F:3])([F:4])([F:5])([F:6])[F:7]" pbc="F F F"
P       -4.54282379      -0.25107765       0.41241455
F       -4.70993423       1.13796425      -0.40080643
F       -2.90552902      -0.15810966       0.21439743
F       -4.36561966       0.57491684       1.88337326
F       -4.35194969      -1.71462631       1.17780304
F       -6.16533661      -0.28763580       0.64234924
F       -4.60480499      -0.99839211      -1.04812241
7
Properties=species:S:1:pos:R:3 name=PF6 mapped_smiles="[P-:1]([F:2])([F:3])([F:4])([F:5])([F:6])[F:7]" pbc="F F F"
P        3.54211426       2.83551407       2.19593811
F        2.75502396       3.06060410       3.64259338
F        2.65214920       1.46177292       2.01326752
F        2.31852722       3.65983582       1.44420624
F        4.39137650       2.56512070       0.80501938
F        4.34807968       4.25805283       2.50548172
F        4.66272736       1.91795731       2.98894501
7
Properties=species:S:1:pos:R:3 name=PF6 mapped_smiles="[P-:1]([F:2])([F:3])([F:4])([F:5])([F:6])[F:7]" pbc="F F F"
P        2.14895248       0.67503738       4.96452332
F        2.94666862      -0.51280975       4.20991898
F        3.57911301       1.12744141       5.71623802
F        2.50296402       1.65350342       3.61244202
F        1.41535759       1.94910431       5.74651337
F        0.77152824       0.23694992       4.25099754
F        1.77097321      -0.31229401       6.26323318
7
Properties=species:S:1:pos:R:3 name=PF6 mapped_smiles="[P-:1]([F:2])([F:3])([F:4])([F:5])([F:6])[F:7]" pbc="F F F"
P        3.29747391       0.35440445      -1.70654488
F        2.08029175      -0.73656845      -2.06446266
F        3.80445480       0.32307053      -3.25759506
F        2.28776550       1.64706421      -2.08323479
F        4.54510498       1.36253738      -1.35231781
F        2.90835571       0.41109467      -0.12684631
F        4.25273895      -1.02994347      -1.37435150
7
Properties=species:S:1:pos:R:3 name=PF6 mapped_smiles="[P-:1]([F:2])([F:3])([F:4])([F:5])([F:6])[F:7]" pbc="F F F"
P       -4.02528000       2.12164879      -1.74340820
F       -4.37702942       0.92417908      -2.78742981
F       -5.16217041       3.10392570      -2.38303566
F       -5.13278580       1.55423355      -0.68719101
F       -3.63155365       3.33021355      -0.66967010
F       -2.86248398       1.22146988      -1.05797577
F       -2.99306870       2.70913124      -2.90303802
7
Properties=species:S:1:pos:R:3 name=PF6 mapped_smiles="[P-:1]([F:2])([F:3])([F:4])([F:5])([F:6])[F:7]" pbc="F F F"
P        0.00000000       0.00000000       0.00000000
F       -1.60561371      -0.27378464      -0.19849396
F        0.42546844      -1.36168671      -0.84137344
F        0.11142349       0.80069733      -1.43603134
F        1.57491302       0.24898911       0.33715439
F       -0.38744736       1.33938980       0.77333450
F       -0.16727448      -0.92935562       1.38731956
7
Properties=species:S:1:pos:R:3 name=PF6 mapped_smiles="[P-:1]([F:2])([F:3])([F:4])([F:5])([F:6])[F:7]" pbc="F F F"
P       -3.75142288       8.66737747       3.64093018
F       -2.99403763      10.08187485       4.03630257
F       -3.67131424       8.22061539       5.22504807
F       -5.19786072       9.32824326       3.94986343
F       -4.46609306       7.27461243       3.19266129
F       -3.79995346       9.21970749       2.06383514
F       -2.28797150       8.00833321       3.31952858
7
Properties=species:S:1:pos:R:3 name=PF6 mapped_smiles="[P-:1]([F:2])([F:3])([F:4])([F:5])([F:6])[F:7]" pbc="F F F"
P        4.02989006      -0.48395538      -1.00839615
F        3.47822189       0.13571739       0.40329361
F        2.57574463      -0.18759346      -1.71333313
F        4.61941910       1.04956245      -1.36527634
F        4.56674576      -1.12347412      -2.43670654
F        5.42779922      -0.91235733      -0.29267120
F        3.38256454      -1.90953445      -0.63751602
7
Properties=species:S:1:pos:R:3 name=PF6 mapped_smiles="[P-:1]([F:2])([F:3])([F:4])([F:5])([F:6])[F:7]" pbc="F F F"
P       -3.63209915       0.63449097       1.31060028
F       -4.29562759       2.08748627       1.01480865
F       -5.00041962      -0.04549980       0.56628036
F       -2.80609131       0.70172310      -0.13753891
F       -3.04704285      -0.83428383       1.68818283
F       -2.31529236       1.33209610       2.07220459
F       -4.50529480       0.67284012       2.66395569
7
Properties=species:S:1:pos:R:3 name=PF6 mapped_smiles="[P-:1]([F:2])([F:3])([F:4])([F:5])([F:6])[F:7]" pbc="F F F"
P       -3.81473541       2.19456863      -1.69958687
F       -3.74893951       3.29334641      -2.91377258
F       -2.17868233       2.29497528      -1.58669662
F       -3.93959427       3.43353653      -0.64315987
F       -3.84332848       1.05687332      -0.50222015
F       -5.40888596       2.13402557      -1.94115829
F       -3.71208191       0.96558762      -2.81287575
7
Properties=species:S:1:pos:R:3 name=PF6 mapped_smiles="[P-:1]([F:2])([F:3])([F:4])([F:5])([F:6])[F:7]" pbc="F F F"
P       -2.78335953       3.95292091       6.44830704
F       -4.39511490       4.35873985       6.76702881
F       -3.28624344       2.76318359       5.39730453
F       -2.75677872       5.04491806       5.24963760
F       -1.22588730       3.49268723       6.18807602
F       -2.29874039       5.06086922       7.56425858
F       -2.79231644       2.77963066       7.63419342
7
Properties=species:S:1:pos:R:3 name=PF6 mapped_smiles="[P-:1]([F:2])([F:3])([F:4])([F:5])([F:6])[F:7]" pbc="F F F"
P        0.00000000       0.00000000       0.00000000
F       -1.64220047      -0.00063515      -0.32291794
F        0.12870598      -1.14902115      -1.17221451
F        0.23776817       1.12193298      -1.14847565
F        1.60867500      -0.02807045       0.23591614
F       -0.20690155       1.23675156       1.12164307
F       -0.10957718      -1.09850502       1.18827057
7
Properties=species:S:1:pos:R:3 name=PF6 mapped_smiles="[P-:1]([F:2])([F:3])([F:4])([F:5])([F:6])[F:7]" pbc="F F F"
P        2.41445541      -0.64963722      -3.89495087
F        3.52335739      -1.14372444      -5.00473022
F        3.64252472      -0.56727409      -2.78638458
F        2.63763809       0.95520592      -4.27200317
F        1.38365555      -0.31652641      -2.65917587
F        1.18811417      -0.73543167      -5.01231766
F        2.12899017      -2.25027847      -3.58892059
7
Properties=species:S:1:pos:R:3 name=PF6 mapped_smiles="[P-:1]([F:2])([F:3])([F:4])([F:5])([F:6])[F:7]" pbc="F F F"
P       -7.25156403      -4.75350952      -3.74834824
F       -6.29731369      -5.49776649      -2.67194748
F       -6.07266617      -4.66979790      -4.87856293
F       -7.77349472      -6.17817688      -4.31064224
F       -8.22364426      -3.99418449      -4.81161499
F       -8.43629837      -4.76436424      -2.70036507
F       -6.65053940      -3.35666084      -3.10848618
7
Properties=species:S:1:pos:R:3 name=PF6 mapped_smiles="[P-:1]([F:2])([F:3])([F:4])([F:5])([F:6])[F:7]" pbc="F F F"
P        0.00000000       0.00000000       0.00000000
F        0.64877701      -0.65615654       1.31717682
F       -1.33082581       0.37334061       0.86421967
F        0.57109070       1.46270943       0.40343475
F       -0.70281601       0.67582321      -1.33193588
F        1.37258339      -0.37135315      -0.85087204
F       -0.67305756      -1.52802658      -0.26731873
7
Properties=species:S:1:pos:R:3 name=PF6 mapped_smiles="[P-:1]([F:2])([F:3])([F:4])([F:5])([F:6])[F:7]" pbc="F F F"
P       -4.35173607      -1.42430878      -3.07816505
F       -4.13892746      -2.62009811      -4.19942474
F       -5.76178360      -1.03821564      -3.86639214
F       -5.16662788      -2.54401398      -2.19308472
F       -4.62441063      -0.23212051      -1.95799255
F       -3.01812553      -1.81141281      -2.19684601
F       -3.49402046      -0.35882950      -3.94787788
7
Properties=species:S:1:pos:R:3 name=PF6 mapped_smiles="[P-:1]([F:2])([F:3])([F:4])([F:5])([F:6])[F:7]" pbc="F F F"
P        4.66610336      -1.13966370      -2.38311005
F        4.81194687       0.21820259      -3.28182220
F        3.11555862      -0.75166893      -2.03120041
F        4.11343002      -1.89177132      -3.73793030
F        4.52177048      -2.51393318      -1.50721741
F        6.24610901      -1.51894188      -2.78560257
F        5.18551254      -0.33033371      -1.04173660
7
Properties=species:S:1:pos:R:3 name=PF6 mapped_smiles="[P-:1]([F:2])([F:3])([F:4])([F:5])([F:6])[F:7]" pbc="F F F"
P        0.00000000       0.00000000       0.00000000
F       -0.38618469      -1.48088264       0.58588409
F       -0.90265656       0.80352211       1.14882660
F        1.28828430       0.04701996       1.05827332
F        0.39203644       1.44675064      -0.69882965
F        0.90615463      -0.78688622      -1.07569504
F       -1.31179047      -0.24788857      -0.95401382
7
Properties=species:S:1:pos:R:3 name=PF6 mapped_smiles="[P-:1]([F:2])([F:3])([F:4])([F:5])([F:6])[F:7]" pbc="F F F"
P       -6.54099655      -2.73295975       3.21553993
F       -7.42279053      -3.72606277       2.25144005
F       -6.27923584      -4.04726028       4.20938683
F       -5.13492966      -3.00439835       2.41194534
F       -5.72282028      -1.66899872       4.23895645
F       -6.81567001      -1.46472931       2.17136955
F       -7.96081543      -2.38037491       4.00567818
7
Properties=species:S:1:pos:R:3 name=PF6 mapped_smiles="[P-:1]([F:2])([F:3])([F:4])([F:5])([F:6])[F:7]" pbc="F F F"
P       -3.12421799       0.03925705      -3.80657196
F       -2.81704712      -1.43310547      -3.17623711
F       -1.48005295       0.12854767      -4.00463486
F       -3.30768204      -0.82090378      -5.21820068
F       -3.43673706       1.42799377      -4.60917091
F       -4.73622894      -0.19774628      -3.50627327
F       -2.91385651       0.84774971      -2.34924507
7
Properties=species:S:1:pos:R:3 name=PF6 mapped_smiles="[P-:1]([F:2])([F:3])([F:4])([F:5])([F:6])[F:7]" pbc="F F F"
P        2.10707092      -5.98728371       4.78367996
F        1.98829269      -4.66082573       3.82625961
F        2.46691895      -4.98476982       6.02521133
F        0.53928947      -5.94216347       5.23176575
F        2.25656891      -7.34993553       5.73113251
F        1.74156952      -6.93927383       3.41893768
F        3.73164368      -6.06492043       4.40759277
7
Properties=species:S:1:pos:R:3 name=PF6 mapped_smiles="[P-:1]([F:2])([F:3])([F:4])([F:5])([F:6])[F:7]" pbc="F F F"
P       -1.30663300      -5.12183571       0.70913696
F       -2.93282318      -5.32059860       0.82171822
F       -1.45396042      -4.88813782      -0.93318176
F       -1.49678040      -3.55727005       0.86923790
F        0.32216263      -4.94936752       0.58524513
F       -1.22520065      -5.36815643       2.32110405
F       -1.10461426      -6.75413704       0.36354446
7
Properties=species:S:1:pos:R:3 name=PF6 mapped_smiles="[P-:1]([F:2])([F:3])([F:4])([F:5])([F:6])[F:7]" pbc="F F F"
P       -0.28588486       1.43930626      -4.88808441
F       -0.58288956       1.42168999      -3.25295639
F       -1.87551498       1.08813667      -5.16390228
F       -0.70963669       3.02545929      -4.87253761
F       -0.07943344       1.57380867      -6.48875618
F        1.30295181       1.82144737      -4.64276314
F        0.04448318      -0.14604568      -4.82783508
7
Properties=species:S:1:pos:R:3 name=PF6 mapped_smiles="[P-:1]([F:2])([F:3])([F:4])([F:5])([F:6])[F:7]" pbc="F F F"
P        0.00000000       0.00000000       0.00000000
F        0.47495842       1.47461700      -0.61502457
F        0.66530609       0.34425735       1.47567749
F       -1.51814079       0.57217407       0.39446640
F       -0.52432632      -1.43625069       0.62681198
F       -0.53529358      -0.46466446      -1.45386124
F        1.41784096      -0.69247818      -0.39617920
7
Properties=species:S:1:pos:R:3 name=PF6 mapped_smiles="[P-:1]([F:2])([F:3])([F:4])([F:5])([F:6])[F:7]" pbc="F F F"
P        4.07397652      -4.12863350       0.72052765
F        4.91542625      -4.54841995      -0.65880585
F        3.13132668      -3.11527634      -0.10802650
F        3.03302574      -5.38892746       0.45125771
F        3.28262520      -3.64398956       2.11928177
F        4.96604729      -5.16777039       1.70439529
F        5.22604942      -2.96099854       1.00977325
7
Properties=species:S:1:pos:R:3 name=PF6 mapped_smiles="[P-:1]([F:2])([F:3])([F:4])([F:5])([F:6])[F:7]" pbc="F F F"
P       -4.16029739       1.44918442       0.30528450
F       -3.17269707       2.78022003       0.48299217
F       -3.94381142       1.33177567      -1.29748917
F       -2.78013992       0.53440857       0.54099274
F       -4.98585510       0.09395409       0.16565132
F       -4.42823410       1.50312042       1.90825462
F       -5.48440552       2.42017365       0.04707718
7
Properties=species:S:1:pos:R:3 name=PF6 mapped_smiles="[P-:1]([F:2])([F:3])([F:4])([F:5])([F:6])[F:7]" pbc="F F F"
P        3.36126709      -1.34521484      -2.98372078
F        3.65999603      -1.11621857      -4.62360382
F        2.95887756      -2.96770096      -3.31639099
F        4.91979218      -1.73109818      -2.83743668
F        3.00598907      -1.64721680      -1.39036560
F        3.64704132       0.19507980      -2.64020920
F        1.81077957      -0.97177887      -3.24169731
7
Properties=species:S:1:pos:R:3 name=PF6 mapped_smiles="[P-:1]([F:2])([F:3])([F:4])([F:5])([F:6])[F:7]" pbc="F F F"
P       -4.84166336      -4.43848419       3.99238586
F       -6.28294754      -3.71079254       3.87790298
F       -4.51548767      -3.60681152       5.34944344
F       -5.59053421      -5.64071274       4.78993607
F       -3.30405045      -5.12542343       4.10245895
F       -5.04156876      -5.17171478       2.54485321
F       -4.11809921      -3.19397354       3.17190552
7
Properties=species:S:1:pos:R:3 name=PF6 mapped_smiles="[P-:1]([F:2])([F:3])([F:4])([F:5])([F:6])[F:7]" pbc="F F F"
P        2.42233276       0.14375877       3.35300636
F        1.46595764      -0.05536461       4.72765541
F        1.42569733       1.36043167       2.85480309
F        3.22835159       1.33191490       4.16803169
F        3.44849014       0.46083832       2.13669968
F        3.50926590      -0.95714378       3.88922501
F        1.58455658      -0.97922516       2.49374771
7
Properties=species:S:1:pos:R:3 name=PF6 mapped_smiles="[P-:1]([F:2])([F:3])([F:4])([F:5])([F:6])[F:7]" pbc="F F F"
P       -1.04451370       0.02665710       4.59044838
F        0.13209915      -0.70275497       3.61348724
F       -1.62696457       0.93726730       3.37070847
F       -2.21322250      -1.11018753       4.18465042
F       -2.15264511       0.73371887       5.55384064
F       -0.52322006      -0.89353561       5.85516548
F        0.08621597       1.18481064       4.89871979
7
Properties=species:S:1:pos:R:3 name=PF6 mapped_smiles="[P-:1]([F:2])([F:3])([F:4])([F:5])([F:6])[F:7]" pbc="F F F"
P        4.83382797      -3.40362549      -4.99131393
F        6.32090759      -3.20541191      -5.65263939
F        5.39086151      -2.87143135      -3.52239609
F        4.46168137      -1.88573456      -5.41028976
F        3.28974152      -3.56830025      -4.37990570
F        4.21350479      -3.89156723      -6.48286438
F        5.18783188      -4.98163795      -4.65028000
7
Properties=species:S:1:pos:R:3 name=PF6 mapped_smiles="[P-:1]([F:2])([F:3])([F:4])([F:5])([F:6])[F:7]" pbc="F F F"
P        0.36582756      -1.55630112      -4.35488319
F       -0.07867241      -3.05405807      -4.99435616
F       -0.75195503      -0.87150955      -5.34851646
F       -0.76660728      -1.80434036      -3.14431763
F        0.73939514      -0.10277557      -3.74314690
F        1.49655533      -2.25427628      -3.30257225
F        1.55788040      -1.39553833      -5.50495338
7
Properties=species:S:1:pos:R:3 name=PF6 mapped_smiles="[P-:1]([F:2])([F:3])([F:4])([F:5])([F:6])[F:7]" pbc="F F F"
P       -1.28219795       1.61261177       3.76605606
F        0.09636688       1.60467339       2.83867645
F       -2.11808586       0.94279861       2.50199509
F       -0.80353546       0.17298508       4.32128143
F       -2.63518524       1.64898682       4.73620987
F       -0.41315842       2.28182030       5.00466919
F       -1.69492531       3.04162788       3.15278244
7
Properties=species:S:1:pos:R:3 name=PF6 mapped_smiles="[P-:1]([F:2])([F:3])([F:4])([F:5])([F:6])[F:7]" pbc="F F F"
P       -0.30289841      -4.02245712      -1.37388992
F       -1.13983154      -2.68550301      -1.78418350
F        0.63926315      -3.03137207      -0.47322845
F       -1.33845139      -4.32140732      -0.07558823
F        0.67484665      -5.31047440      -1.08632660
F       -1.35332870      -4.85539246      -2.32025909
F        0.69581795      -3.70449829      -2.72500992
