8
Properties=species:S:1:pos:R:3 name=EtCl mapped_smiles="[C:1]([C:2]([Cl:3])([H:7])[H:8])([H:4])([H:5])[H:6]" pbc="F F F"
C       -0.30331802      -2.44634247      -5.07068825
C       -0.75979805      -2.86922836      -3.65531731
Cl      -1.74921799      -1.66208649      -2.90348244
H        0.10812187      -3.29932404      -5.61806679
H       -1.15850639      -2.03911209      -5.68279839
H        0.53994370      -1.71500397      -5.02312660
H        0.01533890      -3.08036804      -2.89705467
H       -1.31152725      -3.76830292      -3.68976402
8
Properties=species:S:1:pos:R:3 name=EtCl mapped_smiles="[C:1]([C:2]([Cl:3])([H:7])[H:8])([H:4])([H:5])[H:6]" pbc="F F F"
C        2.53102493       6.72807121      -0.72640038
C        1.21012878       6.18814659      -1.23231316
Cl       0.30450058       5.44882774       0.10769272
H        3.12261581       7.14163017      -1.56003380
H        2.46399307       7.47522545       0.02703857
H        3.12414932       5.89613533      -0.38699150
H        1.36738968       5.44121742      -1.98056602
H        0.66035461       7.07183266      -1.60201073
8
Properties=species:S:1:pos:R:3 name=EtCl mapped_smiles="[C:1]([C:2]([Cl:3])([H:7])[H:8])([H:4])([H:5])[H:6]" pbc="F F F"
C       -2.69519424      -1.52752495       3.09832573
C       -1.37534714      -1.64275932       3.82560730
Cl      -0.72151947      -3.25956917       3.80820084
H       -2.89939117      -0.43121910       2.90327835
H       -2.73591614      -2.01080132       2.08515930
H       -3.49042130      -1.94176865       3.78811836
H       -1.55012894      -1.30685425       4.82666779
H       -0.58576965      -1.01766205       3.36961174
8
Properties=species:S:1:pos:R:3 name=EtCl mapped_smiles="[C:1]([C:2]([Cl:3])([H:7])[H:8])([H:4])([H:5])[H:6]" pbc="F F F"
C        0.90404510       5.27046967      -1.54696465
C       -0.01497650       5.00578690      -0.25832176
Cl      -0.28813553       6.46639252       0.69862556
H        0.92933273       4.41183472      -2.19964790
H        0.52090836       6.08798981      -2.13860703
H        1.93369675       5.41768456      -1.05978012
H        0.26861191       4.21638680       0.46107101
H       -1.03507996       4.82755852      -0.58175087
8
Properties=species:S:1:pos:R:3 name=EtCl mapped_smiles="[C:1]([C:2]([Cl:3])([H:7])[H:8])([H:4])([H:5])[H:6]" pbc="F F F"
C       -4.18090820      -2.94575119       1.01940918
C       -2.84115219      -2.38554764       0.52762222
Cl      -1.36003113      -3.48122787       0.91281128
H       -5.10665131      -2.33069992       0.73546600
H       -4.31946564      -4.01871109       0.83132553
H       -4.04689407      -2.85087967       2.11492920
H       -2.52510452      -1.38997269       0.92022705
H       -2.86285019      -2.29172134      -0.57671356
8
Properties=species:S:1:pos:R:3 name=EtCl mapped_smiles="[C:1]([C:2]([Cl:3])([H:7])[H:8])([H:4])([H:5])[H:6]" pbc="F F F"
C        1.37605476       0.71030617      -6.29845238
C        0.92022133       0.20503426      -4.94594574
Cl       0.35594368       1.60245323      -3.97360039
H        2.22050667       1.41625023      -6.22392082
H        1.68034172      -0.13049126      -6.91556358
H        0.62479210       1.14182854      -6.81099510
H        1.82176399      -0.14811134      -4.44229889
H        0.16993141      -0.46901131      -4.95699501
8
Properties=species:S:1:pos:R:3 name=EtCl mapped_smiles="[C:1]([C:2]([Cl:3])([H:7])[H:8])([H:4])([H:5])[H:6]" pbc="F F F"
C        3.06420898      -1.44164467      -1.25537109
C        4.01266861      -0.70593834      -2.13156891
Cl       3.12785339       0.78760910      -2.60686111
H        3.41954803      -2.41047859      -0.91756821
H        2.80859375      -0.79055405      -0.32327271
H        2.15491104      -1.54026985      -1.78379440
H        4.22965622      -1.34392166      -3.01152420
H        4.98433304      -0.48216438      -1.68518066
8
Properties=species:S:1:pos:R:3 name=EtCl mapped_smiles="[C:1]([C:2]([Cl:3])([H:7])[H:8])([H:4])([H:5])[H:6]" pbc="F F F"
C       -5.17188263      -0.85030365       2.97172928
C       -6.58688354      -1.20356560       3.13668060
Cl      -7.20730972      -0.45816612       4.57345963
H       -4.70495987      -1.36238289       2.11456299
H       -5.11090851       0.24818420       2.84434891
H       -4.67099380      -1.09507370       3.89487839
H       -6.59265137      -2.23357582       3.26722717
H       -7.20953369      -0.95958328       2.23747253
8
Properties=species:S:1:pos:R:3 name=EtCl mapped_smiles="[C:1]([C:2]([Cl:3])([H:7])[H:8])([H:4])([H:5])[H:6]" pbc="F F F"
C        0.72732353      -3.36958885      -2.42394066
C        0.25681496      -2.11605644      -3.17587090
Cl      -0.58018684      -2.70932198      -4.68765068
H        1.37313652      -3.92025566      -3.08276939
H        1.22807884      -3.18599129      -1.41367912
H       -0.09980583      -4.10178185      -2.32411766
H        1.12961388      -1.49291801      -3.37100792
H       -0.48371315      -1.54179573      -2.61948967
8
Properties=species:S:1:pos:R:3 name=EtCl mapped_smiles="[C:1]([C:2]([Cl:3])([H:7])[H:8])([H:4])([H:5])[H:6]" pbc="F F F"
C        4.08271980       0.42075920      -3.39630890
C        3.53214073      -0.91714287      -3.72737503
Cl       1.93338585      -1.23092079      -3.01738358
H        5.20631981       0.40804482      -3.45831299
H        3.64246559       1.15254402      -4.10147476
H        3.70643806       0.65353584      -2.40295410
H        4.20111275      -1.80399132      -3.52912521
H        3.39840889      -0.81394768      -4.77904510
8
Properties=species:S:1:pos:R:3 name=EtCl mapped_smiles="[C:1]([C:2]([Cl:3])([H:7])[H:8])([H:4])([H:5])[H:6]" pbc="F F F"
C        1.93443298       1.99274445       2.84893799
C        0.88684845       2.90074921       3.57379150
Cl       0.26808929       4.30808640       2.56348419
H        1.69723892       1.84680176       1.81019974
H        2.97383881       2.47618103       2.90348816
H        1.95895386       1.01971054       3.29174805
H        1.18474197       3.23485947       4.51832199
H        0.03192520       2.31068039       3.73156357
8
Properties=species:S:1:pos:R:3 name=EtCl mapped_smiles="[C:1]([C:2]([Cl:3])([H:7])[H:8])([H:4])([H:5])[H:6]" pbc="F F F"
C       -3.75190163       5.25228691      -8.01550102
C       -3.15902901       6.41673279      -8.78052902
Cl      -2.25802422       7.45228386      -7.63798332
H       -4.45690346       4.71771431      -8.66985893
H       -3.01837730       4.51474571      -7.63251114
H       -4.42922211       5.54377747      -7.13752747
H       -3.95181465       6.95352745      -9.28523636
H       -2.39363289       6.08292198      -9.48785782
8
Properties=species:S:1:pos:R:3 name=EtCl mapped_smiles="[C:1]([C:2]([Cl:3])([H:7])[H:8])([H:4])([H:5])[H:6]" pbc="F F F"
C        7.00402641       3.32074928      -3.84282303
C        5.99382401       2.81834030      -2.73600197
Cl       4.30497932       3.19916344      -3.11473274
H        6.92813492       4.39205551      -3.86932945
H        8.03420830       3.10312653      -3.65533638
H        6.76688957       2.81554604      -4.83722115
H        6.18762779       3.29910660      -1.82317924
H        6.06101418       1.75623703      -2.58554649
8
Properties=species:S:1:pos:R:3 name=EtCl mapped_smiles="[C:1]([C:2]([Cl:3])([H:7])[H:8])([H:4])([H:5])[H:6]" pbc="F F F"
C       -2.36556053      -0.42864418      -3.67038727
C       -2.32674980      -1.90670776      -3.48009109
Cl      -3.83053780      -2.61986160      -2.73432922
H       -2.61618996       0.23861694      -2.85381699
H       -1.31808662      -0.14308929      -3.95175171
H       -3.00501442      -0.18762016      -4.56048584
H       -1.58222198      -2.04667473      -2.68912888
H       -2.11470985      -2.42695045      -4.40696335
8
Properties=species:S:1:pos:R:3 name=EtCl mapped_smiles="[C:1]([C:2]([Cl:3])([H:7])[H:8])([H:4])([H:5])[H:6]" pbc="F F F"
C        3.03858948      -1.07067490       2.70014191
C        1.90698624      -0.54747009       3.58523560
Cl       2.40562820      -0.55341721       5.26416397
H        3.52736282      -1.93930435       3.08876038
H        2.68568039      -1.33940887       1.71958923
H        3.75156021      -0.24717331       2.56848907
H        0.97887039      -1.14051056       3.42816162
H        1.68870163       0.48271179       3.26016617
8
Properties=species:S:1:pos:R:3 name=EtCl mapped_smiles="[C:1]([C:2]([Cl:3])([H:7])[H:8])([H:4])([H:5])[H:6]" pbc="F F F"
C       -2.14683533       3.46944809      -1.35399055
C       -2.46599197       2.43166351      -2.43554688
Cl      -4.02552414       1.71756744      -2.14640617
H       -2.07446671       3.08005142      -0.32999229
H       -1.12076187       3.78096771      -1.49175835
H       -2.74659729       4.37297440      -1.41535759
H       -1.70715714       1.62419510      -2.35176849
H       -2.47774124       2.92213440      -3.43815613
8
Properties=species:S:1:pos:R:3 name=EtCl mapped_smiles="[C:1]([C:2]([Cl:3])([H:7])[H:8])([H:4])([H:5])[H:6]" pbc="F F F"
C        1.90925598      -2.06340027       7.74387550
C        0.54956818      -2.31999016       8.33353233
Cl      -0.20379639      -3.62674904       7.32808113
H        2.71769333      -2.57970238       8.34405327
H        1.95314026      -2.38496590       6.70506859
H        2.23571014      -0.99619865       7.78181648
H       -0.14760208      -1.43122673       8.11899376
H        0.53646469      -2.77987671       9.32378960
8
Properties=species:S:1:pos:R:3 name=EtCl mapped_smiles="[C:1]([C:2]([Cl:3])([H:7])[H:8])([H:4])([H:5])[H:6]" pbc="F F F"
C       -3.72166824      -1.39668083      -5.46144867
C       -3.08977890      -2.43629265      -6.39661789
Cl      -1.36493111      -1.96362877      -6.75810242
H       -3.28412056      -1.34960747      -4.42545700
H       -3.50448799      -0.40888596      -5.77201462
H       -4.77331352      -1.49394798      -5.38715363
H       -3.62064362      -2.53313255      -7.35060120
H       -3.14548683      -3.45622826      -5.90010834
8
Properties=species:S:1:pos:R:3 name=EtCl mapped_smiles="[C:1]([C:2]([Cl:3])([H:7])[H:8])([H:4])([H:5])[H:6]" pbc="F F F"
C       -3.47289276      -3.35627937       1.75627136
C       -3.41279984      -4.36564445       0.57523155
Cl      -2.84770966      -5.98329735       0.96869469
H       -2.48940659      -3.18307686       2.17497253
H       -4.00757980      -2.36551857       1.46668243
H       -4.09017944      -3.75403214       2.49228287
H       -2.81837845      -4.13944054      -0.32613182
H       -4.44016647      -4.45401192       0.15464401
8
Properties=species:S:1:pos:R:3 name=EtCl mapped_smiles="[C:1]([C:2]([Cl:3])([H:7])[H:8])([H:4])([H:5])[H:6]" pbc="F F F"
C        2.31109810      -1.11121178      -9.86404228
C        1.42849159      -1.91934586      -8.92185020
Cl       0.92757607      -3.45008469      -9.73705101
H        2.55441475      -0.08843613      -9.43439293
H        3.27001381      -1.49956322     -10.17165947
H        1.79015541      -0.93264961     -10.75428581
H        0.51080513      -1.40118408      -8.58506584
H        1.92408943      -2.25945473      -8.01222801
8
Properties=species:S:1:pos:R:3 name=EtCl mapped_smiles="[C:1]([C:2]([Cl:3])([H:7])[H:8])([H:4])([H:5])[H:6]" pbc="F F F"
C        5.21267509      -1.06591034       2.24863434
C        4.15739632      -2.08227348       2.93169785
Cl       2.52150154      -1.97642326       2.28498840
H        4.86974907      -0.06859207       2.58365250
H        6.23867416      -1.26361084       2.65157318
H        5.22313309      -1.11436844       1.16156769
H        4.10571861      -1.88594627       3.98808289
H        4.45561600      -3.13931084       2.80611801
8
Properties=species:S:1:pos:R:3 name=EtCl mapped_smiles="[C:1]([C:2]([Cl:3])([H:7])[H:8])([H:4])([H:5])[H:6]" pbc="F F F"
C       -0.89518547      -8.79378319      -2.31007767
C       -2.27993584      -8.56910896      -2.89141846
Cl      -3.08966637     -10.06487083      -3.51612091
H       -0.20629120      -9.19891167      -2.99446106
H       -0.41502380      -7.86685371      -2.18624496
H       -0.89695549      -9.27577591      -1.38456345
H       -2.14309502      -7.88604546      -3.70489883
H       -3.00893974      -8.05726242      -2.20915985
8
Properties=species:S:1:pos:R:3 name=EtCl mapped_smiles="[C:1]([C:2]([Cl:3])([H:7])[H:8])([H:4])([H:5])[H:6]" pbc="F F F"
C       -2.16898346      -4.21080017      -4.36587334
C       -1.70424652      -3.85921097      -2.94124413
Cl      -0.83183670      -5.18350792      -2.41966820
H       -2.78178406      -5.15158081      -4.35194206
H       -2.73961258      -3.42209625      -4.83987236
H       -1.33051300      -4.41778946      -4.99307823
H       -2.51624680      -3.56225967      -2.25864220
H       -0.96272278      -3.10911560      -2.94691277
8
Properties=species:S:1:pos:R:3 name=EtCl mapped_smiles="[C:1]([C:2]([Cl:3])([H:7])[H:8])([H:4])([H:5])[H:6]" pbc="F F F"
C       -2.95231438      -3.99449539      -4.90855026
C       -3.80947304      -3.06750107      -5.66860962
Cl      -3.06035995      -2.63639450      -7.21342468
H       -3.46320152      -4.37986374      -4.02247238
H       -2.76778793      -4.84437943      -5.57055664
H       -1.99250984      -3.64661026      -4.66361618
H       -4.01147270      -2.17291641      -5.10166550
H       -4.75857353      -3.50824356      -5.87384796
8
Properties=species:S:1:pos:R:3 name=EtCl mapped_smiles="[C:1]([C:2]([Cl:3])([H:7])[H:8])([H:4])([H:5])[H:6]" pbc="F F F"
C        4.25013351       0.62819672      -0.97177696
C        4.75433922      -0.62876129      -0.23536110
Cl       5.98649788      -1.52313232      -1.19195747
H        3.99474716       1.44984436      -0.27322578
H        5.04212379       0.96367645      -1.68005180
H        3.37503815       0.48233795      -1.57719231
H        4.04698944      -1.38895035       0.16795540
H        5.38737297      -0.28580475       0.59076500
8
Properties=species:S:1:pos:R:3 name=EtCl mapped_smiles="[C:1]([C:2]([Cl:3])([H:7])[H:8])([H:4])([H:5])[H:6]" pbc="F F F"
C        1.42449188       4.63773918      -2.09513092
C        2.07423401       5.28041840      -3.32394409
Cl       3.19784164       6.67154694      -2.86761284
H        2.07918549       3.97975159      -1.45061302
H        0.97639847       5.39921188      -1.42208672
H        0.65311432       3.91966057      -2.40420151
H        1.40208054       5.83315468      -3.94389153
H        2.66533279       4.57043839      -3.93281937
8
Properties=species:S:1:pos:R:3 name=EtCl mapped_smiles="[C:1]([C:2]([Cl:3])([H:7])[H:8])([H:4])([H:5])[H:6]" pbc="F F F"
C       -4.94712257      -0.80326843      -4.03941536
C       -3.46893120      -0.82073784      -4.14952087
Cl      -2.73608589      -1.06348038      -2.48946762
H       -5.23914528       0.05631828      -3.44948196
H       -5.41345406      -0.56320381      -5.02275276
H       -5.46584511      -1.71894646      -3.65600014
H       -3.11891747       0.12578583      -4.52924538
H       -3.24350548      -1.66380882      -4.83578873
8
Properties=species:S:1:pos:R:3 name=EtCl mapped_smiles="[C:1]([C:2]([Cl:3])([H:7])[H:8])([H:4])([H:5])[H:6]" pbc="F F F"
C        6.29874420      -1.92330933       2.38254166
C        5.25459290      -1.53946877       1.38665009
Cl       4.89493942       0.18398094       1.46115112
H        6.01511765      -1.68762779       3.34628296
H        6.57772064      -2.96907997       2.33074951
H        7.19078636      -1.31750870       2.12817764
H        4.33515930      -2.00068474       1.51822281
H        5.54895782      -1.76131058       0.41357040
8
Properties=species:S:1:pos:R:3 name=EtCl mapped_smiles="[C:1]([C:2]([Cl:3])([H:7])[H:8])([H:4])([H:5])[H:6]" pbc="F F F"
C        2.38542938      -0.57435226      -3.22014999
C        3.57048416      -1.56544876      -2.99858093
Cl       3.35838890      -2.62899399      -1.46181107
H        2.30722618       0.21552658      -2.40861511
H        2.33946991      -0.20154953      -4.24112701
H        1.47282982      -1.14579391      -3.11373138
H        4.39702225      -0.90998459      -2.69503784
H        3.75337982      -2.30430984      -3.83344269
8
Properties=species:S:1:pos:R:3 name=EtCl mapped_smiles="[C:1]([C:2]([Cl:3])([H:7])[H:8])([H:4])([H:5])[H:6]" pbc="F F F"
C        4.83576012      -3.37178802       6.34048462
C        5.94476891      -2.44194031       6.46992493
Cl       7.45375633      -3.29496765       7.00025749
H        5.14428902      -4.17787170       5.65731812
H        4.44264030      -3.65602875       7.28159904
H        3.96667671      -2.95891571       5.89424896
H        5.78412819      -1.75691223       7.26764488
H        6.09494591      -1.84782410       5.52234650
8
Properties=species:S:1:pos:R:3 name=EtCl mapped_smiles="[C:1]([C:2]([Cl:3])([H:7])[H:8])([H:4])([H:5])[H:6]" pbc="F F F"
C        3.59550285       3.22331429       2.45679855
C        2.48099899       2.95931053       3.47017479
Cl       1.45189476       1.64342117       2.93231201
H        4.02474213       2.29614639       2.01464272
H        3.32494545       3.90110588       1.65710258
H        4.44079018       3.96859932       2.86558533
H        1.83079910       3.79904747       3.52378845
H        2.88951492       2.75417137       4.45413399
8
Properties=species:S:1:pos:R:3 name=EtCl mapped_smiles="[C:1]([C:2]([Cl:3])([H:7])[H:8])([H:4])([H:5])[H:6]" pbc="F F F"
C        0.04003525      -0.96159363       4.77520752
C        0.56334877      -2.27499008       5.34532166
Cl       0.50950241      -3.62911987       4.13449860
H        0.17800331      -0.17037201       5.51321793
H        0.57493782      -0.66650009       3.91217422
H       -1.05328369      -1.05369568       4.59140015
H        0.04964256      -2.59634781       6.25383377
H        1.58115387      -2.12383652       5.67304230
8
Properties=species:S:1:pos:R:3 name=EtCl mapped_smiles="[C:1]([C:2]([Cl:3])([H:7])[H:8])([H:4])([H:5])[H:6]" pbc="F F F"
C        1.08462906      -6.35264206      -3.52628899
C        0.42640305      -7.48844528      -2.66774940
Cl       1.67247009      -8.81391525      -2.43017578
H        1.87216949      -5.85239220      -2.98451424
H        1.41696548      -6.70628357      -4.54046249
H        0.35201645      -5.65805626      -3.74108505
H       -0.42609024      -8.00014305      -3.18419838
H        0.00346756      -7.14580917      -1.67253113
8
Properties=species:S:1:pos:R:3 name=EtCl mapped_smiles="[C:1]([C:2]([Cl:3])([H:7])[H:8])([H:4])([H:5])[H:6]" pbc="F F F"
C       -5.96157455       5.73560524       0.78893280
C       -5.33752060       4.58353996       1.51525116
Cl      -4.48680878       3.52201271       0.36396027
H       -5.26027679       6.06918526      -0.04039764
H       -6.88978195       5.42232323       0.33315277
H       -6.15119934       6.62317848       1.44345856
H       -6.00326920       3.90365791       2.02508545
H       -4.62352753       4.84721947       2.28569031
8
Properties=species:S:1:pos:R:3 name=EtCl mapped_smiles="[C:1]([C:2]([Cl:3])([H:7])[H:8])([H:4])([H:5])[H:6]" pbc="F F F"
C        5.35527611       5.18722534       3.12027740
C        6.23003006       5.77931976       4.21614838
Cl       6.80601311       4.53116226       5.46569061
H        4.36875153       4.75458527       3.60688400
H        5.09051132       5.96870995       2.44028091
H        5.88215065       4.37034416       2.60419083
H        5.76528168       6.66243362       4.71914291
H        7.16222191       6.19464684       3.82500076
8
Properties=species:S:1:pos:R:3 name=EtCl mapped_smiles="[C:1]([C:2]([Cl:3])([H:7])[H:8])([H:4])([H:5])[H:6]" pbc="F F F"
C       -0.07304001       3.31154060      -3.07178497
C        0.07792282       3.97886658      -4.36778450
Cl       0.89483261       2.88798332      -5.42368889
H       -0.30146408       2.27820778      -3.08948517
H        0.85403824       3.33948326      -2.35769081
H       -0.98155594       3.74272919      -2.65759087
H        0.64957047       4.93068123      -4.40933418
H       -0.95109940       4.18433571      -4.78084183
8
Properties=species:S:1:pos:R:3 name=EtCl mapped_smiles="[C:1]([C:2]([Cl:3])([H:7])[H:8])([H:4])([H:5])[H:6]" pbc="F F F"
C       -4.89367676      -4.49898720       6.47806358
C       -3.81477547      -4.39454079       5.41338921
Cl      -2.95882416      -5.99312210       5.25748634
H       -5.43776321      -3.57917976       6.65918541
H       -5.71549606      -5.17924309       6.27505684
H       -4.41338921      -4.73846245       7.43634987
H       -3.01526833      -3.67709541       5.68882561
H       -4.33880615      -4.14220428       4.53956413
8
Properties=species:S:1:pos:R:3 name=EtCl mapped_smiles="[C:1]([C:2]([Cl:3])([H:7])[H:8])([H:4])([H:5])[H:6]" pbc="F F F"
C       -0.67388153       4.47560883       8.27335167
C       -1.23291016       3.10344315       8.59779167
Cl      -0.47488785       1.83596611       7.60646629
H       -1.28325653       5.22656441       8.77765846
H        0.38343430       4.62282181       8.60169792
H       -0.77843857       4.62891960       7.22725487
H       -2.27505112       3.13673401       8.31514549
H       -1.13442230       2.90132904       9.68387413
8
Properties=species:S:1:pos:R:3 name=EtCl mapped_smiles="[C:1]([C:2]([Cl:3])([H:7])[H:8])([H:4])([H:5])[H:6]" pbc="F F F"
C       -2.36367226       2.77523994       1.22274590
C       -2.11839104       4.10315895       1.93260002
Cl      -0.96929359       3.81709480       3.28819466
H       -2.81537056       2.00927162       1.94402695
H       -3.02692604       2.97793007       0.36717987
H       -1.43373680       2.32922554       0.73735237
H       -3.05169868       4.52207375       2.32767677
H       -1.62829018       4.74044991       1.15474701
8
Properties=species:S:1:pos:R:3 name=EtCl mapped_smiles="[C:1]([C:2]([Cl:3])([H:7])[H:8])([H:4])([H:5])[H:6]" pbc="F F F"
C       -2.30754280      -2.69096947       2.65251541
C       -3.18205833      -3.92276192       2.56488800
Cl      -3.85326576      -4.32101631       4.15724564
H       -1.75731659      -2.44047356       3.59992981
H       -1.58080864      -2.51177788       1.88361740
H       -2.92408562      -1.77655602       2.47615814
H       -2.56608009      -4.75824928       2.19201279
H       -4.05104828      -3.74971962       1.94942093
