8
Properties=species:S:1:pos:R:3 name=EtCl mapped_smiles="[C:1]([C:2]([Cl:3])([H:7])[H:8])([H:4])([H:5])[H:6]" pbc="F F F"
C       -1.50451660      -1.50734711       3.30727196
C       -0.82255936      -0.57758331       4.22865105
Cl       0.94620705      -0.86406326       4.12853432
H       -0.79647255      -1.64923859       2.47897148
H       -1.55446625      -2.52874756       3.73321342
H       -2.50711250      -1.21113205       3.08468437
H       -1.22627831      -0.72216034       5.25027275
H       -1.00949097       0.47602844       3.89719200
8
Properties=species:S:1:pos:R:3 name=EtCl mapped_smiles="[C:1]([C:2]([Cl:3])([H:7])[H:8])([H:4])([H:5])[H:6]" pbc="F F F"
C       -4.50262451       1.19140434      -4.69178391
C       -3.65049171       2.07803535      -5.65758514
Cl      -3.77934074       1.54716682      -7.41200066
H       -4.60871315       1.68978310      -3.76509476
H       -5.48849106       1.00390816      -5.03807068
H       -4.03025627       0.23694611      -4.56602859
H       -2.63451385       2.11571503      -5.36528778
H       -3.98058319       3.14629173      -5.77904129
8
Properties=species:S:1:pos:R:3 name=EtCl mapped_smiles="[C:1]([C:2]([Cl:3])([H:7])[H:8])([H:4])([H:5])[H:6]" pbc="F F F"
C       -6.84149933      -1.74612427       2.51947021
C       -7.28837204      -3.17732239       2.81448364
Cl      -9.05525208      -3.37296295       2.26322174
H       -7.48144150      -1.04460907       2.98897552
H       -5.73917770      -1.63528442       2.80612183
H       -6.80255508      -1.59716034       1.45063782
H       -7.20803070      -3.33102417       3.84053040
H       -6.66557693      -3.90842438       2.37491608
8
Properties=species:S:1:pos:R:3 name=EtCl mapped_smiles="[C:1]([C:2]([Cl:3])([H:7])[H:8])([H:4])([H:5])[H:6]" pbc="F F F"
C        5.85663986       5.44342232       2.17550468
C        5.69073105       3.94873047       1.79730797
Cl       4.42462921       3.17204475       2.75115395
H        4.93461609       5.98877907       1.91941071
H        6.16624069       5.67942047       3.19826317
H        6.60988235       5.96057892       1.53967094
H        6.58992004       3.39859200       1.88659096
H        5.46392822       3.89193344       0.71850777
8
Properties=species:S:1:pos:R:3 name=EtCl mapped_smiles="[C:1]([C:2]([Cl:3])([H:7])[H:8])([H:4])([H:5])[H:6]" pbc="F F F"
C       -1.64027786       1.07768631       3.30753326
C       -0.86752892       2.39267731       3.45474243
Cl      -0.96311760       3.30674362       1.89653778
H       -1.90234566       0.63396645       4.27689743
H       -2.64156151       1.29562378       2.87631989
H       -1.10194397       0.35751343       2.60830688
H        0.13268852       2.20760345       3.79259491
H       -1.41568756       3.03944016       4.14571381
8
Properties=species:S:1:pos:R:3 name=EtCl mapped_smiles="[C:1]([C:2]([Cl:3])([H:7])[H:8])([H:4])([H:5])[H:6]" pbc="F F F"
C       -1.16297150      -3.25267410      -4.45877647
C       -2.04000282      -2.31659889      -5.26627731
Cl      -1.60491180      -2.09903145      -6.89675713
H       -0.92286873      -2.70672989      -3.51937866
H       -1.58658409      -4.22748947      -4.37681770
H       -0.16096687      -3.33549500      -4.89801407
H       -1.92188835      -1.26630974      -4.86870384
H       -3.14410973      -2.57119751      -5.19164085
8
Properties=species:S:1:pos:R:3 name=EtCl mapped_smiles="[C:1]([C:2]([Cl:3])([H:7])[H:8])([H:4])([H:5])[H:6]" pbc="F F F"
C        4.46619797       3.64798355       0.10330200
C        4.34803391       2.34264946       0.80314445
Cl       5.89494705       1.44001961       0.46557236
H        3.61083221       4.18449402       0.30838776
H        5.23544693       4.38292313       0.33746529
H        4.51629257       3.47731972      -1.00657654
H        3.56078339       1.75431633       0.44863701
H        4.26395416       2.45020485       1.85222244
8
Properties=species:S:1:pos:R:3 name=EtCl mapped_smiles="[C:1]([C:2]([Cl:3])([H:7])[H:8])([H:4])([H:5])[H:6]" pbc="F F F"
C        0.75490570       3.56706810       6.24305534
C       -0.65736771       3.48729324       5.69633675
Cl      -0.71337509       3.01293945       3.91760445
H        0.66549683       3.65289497       7.38558769
H        1.27025986       2.61288261       6.03359413
H        1.32310486       4.39278984       5.80860710
H       -1.08076859       4.53166199       5.64492035
H       -1.25051498       2.74785614       6.22669029
8
Properties=species:S:1:pos:R:3 name=EtCl mapped_smiles="[C:1]([C:2]([Cl:3])([H:7])[H:8])([H:4])([H:5])[H:6]" pbc="F F F"
C        3.35713387      -0.65891838       0.80600357
C        4.23689842       0.48915672       0.38382149
Cl       5.47337151       0.01806450      -0.71904945
H        3.91755104      -1.48862648       1.21049309
H        2.64693260      -0.33189964       1.59194756
H        2.90936470      -1.11084938      -0.10904121
H        4.64497566       0.96958351       1.24967766
H        3.60865593       1.26677895      -0.03988266
8
Properties=species:S:1:pos:R:3 name=EtCl mapped_smiles="[C:1]([C:2]([Cl:3])([H:7])[H:8])([H:4])([H:5])[H:6]" pbc="F F F"
C        0.23700142       3.57908821      -5.51707840
C        0.61939812       4.14541435      -4.08888626
Cl      -0.75378036       3.81545830      -2.92593765
H        1.10407829       3.60159111      -6.24370193
H       -0.05870819       2.55969429      -5.46837234
H       -0.59468079       4.13704109      -6.04779053
H        0.86217499       5.18516350      -4.19184494
H        1.52425766       3.68533516      -3.66627121
8
Properties=species:S:1:pos:R:3 name=EtCl mapped_smiles="[C:1]([C:2]([Cl:3])([H:7])[H:8])([H:4])([H:5])[H:6]" pbc="F F F"
C        3.43494415       3.39533997      -0.93680954
C        3.96514893       2.04408455      -0.60319519
Cl       3.17235947       0.74374390      -1.45755768
H        3.85612869       3.70396042      -1.87924194
H        2.37631989       3.46228981      -0.83335114
H        3.83191299       4.14213753      -0.21713257
H        3.75025940       1.91125488       0.46718597
H        4.99515533       1.89376259      -0.80425644
8
Properties=species:S:1:pos:R:3 name=EtCl mapped_smiles="[C:1]([C:2]([Cl:3])([H:7])[H:8])([H:4])([H:5])[H:6]" pbc="F F F"
C       -5.05577850       0.52936172      -3.62983894
C       -4.90568161      -0.96718597      -3.94410133
Cl      -4.95959854      -1.25140190      -5.64527512
H       -4.17504120       1.08680534      -3.88967514
H       -5.98849487       0.81610870      -4.04602623
H       -5.23725128       0.57678604      -2.62877274
H       -5.54352188      -1.70595360      -3.41308975
H       -3.86775589      -1.19354820      -3.58690834
8
Properties=species:S:1:pos:R:3 name=EtCl mapped_smiles="[C:1]([C:2]([Cl:3])([H:7])[H:8])([H:4])([H:5])[H:6]" pbc="F F F"
C        2.97934151       6.05929184      -6.01269531
C        2.20191574       4.77849388      -6.20657349
Cl       0.67503548       5.01769829      -7.06811523
H        3.18580818       6.58278275      -6.92563629
H        2.47445488       6.74153709      -5.25402069
H        3.93255424       5.74227142      -5.54750824
H        1.92556763       4.33644485      -5.24085236
H        2.73666191       4.06608963      -6.83190155
8
Properties=species:S:1:pos:R:3 name=EtCl mapped_smiles="[C:1]([C:2]([Cl:3])([H:7])[H:8])([H:4])([H:5])[H:6]" pbc="F F F"
C        0.33357811      -5.16885948      -7.14552689
C        1.31213951      -5.82181549      -8.13422394
Cl       1.32792473      -7.60566711      -7.78290939
H        0.68260956      -5.36302376      -6.15119171
H        0.48157501      -4.07872009      -7.27008820
H       -0.68795967      -5.50866318      -7.27214050
H        2.34548950      -5.44052696      -8.08309555
H        1.02491951      -5.59880066      -9.17221832
8
Properties=species:S:1:pos:R:3 name=EtCl mapped_smiles="[C:1]([C:2]([Cl:3])([H:7])[H:8])([H:4])([H:5])[H:6]" pbc="F F F"
C       -2.54009438      -2.98767090       0.12275887
C       -1.52187157      -4.11611938       0.39102364
Cl       0.00915337      -3.53476334       1.16957474
H       -3.18693542      -3.26118851      -0.68173790
H       -3.07691574      -2.65212250       0.95931053
H       -2.17254639      -2.08276749      -0.36100197
H       -1.20199394      -4.63051605      -0.46023941
H       -1.82637405      -4.93579102       1.03125381
8
Properties=species:S:1:pos:R:3 name=EtCl mapped_smiles="[C:1]([C:2]([Cl:3])([H:7])[H:8])([H:4])([H:5])[H:6]" pbc="F F F"
C       -3.06727219       4.26929092       3.29303360
C       -3.09247208       4.90620041       1.94472313
Cl      -4.22500229       6.38604736       1.93667030
H       -2.73116302       4.93606949       4.12778091
H       -4.04917526       3.88074875       3.60517120
H       -2.39305496       3.39588547       3.29695702
H       -3.46864700       4.12870407       1.21890831
H       -2.06954956       5.17358017       1.57236481
8
Properties=species:S:1:pos:R:3 name=EtCl mapped_smiles="[C:1]([C:2]([Cl:3])([H:7])[H:8])([H:4])([H:5])[H:6]" pbc="F F F"
C       -2.44210815      -6.28232384       2.92016220
C       -1.67257690      -5.04944420       2.48726463
Cl      -2.70353699      -3.66251945       2.34402657
H       -1.80491638      -7.22718620       2.90595245
H       -2.76632309      -6.24598503       3.94539833
H       -3.18608093      -6.47113609       2.29913139
H       -1.16477585      -5.14760399       1.48815346
H       -0.89635086      -4.71656609       3.11722946
8
Properties=species:S:1:pos:R:3 name=EtCl mapped_smiles="[C:1]([C:2]([Cl:3])([H:7])[H:8])([H:4])([H:5])[H:6]" pbc="F F F"
C       -6.24200821      -0.05039597      -1.74929047
C       -5.80501747      -1.48881340      -2.10725784
Cl      -5.22718620      -2.36348534      -0.63650131
H       -6.52441216       0.59316826      -2.59610748
H       -7.08102608      -0.09642792      -1.11304092
H       -5.44241524       0.50362587      -1.21088028
H       -5.07943535      -1.56775475      -2.86786270
H       -6.64084816      -2.03783226      -2.52295303
8
Properties=species:S:1:pos:R:3 name=EtCl mapped_smiles="[C:1]([C:2]([Cl:3])([H:7])[H:8])([H:4])([H:5])[H:6]" pbc="F F F"
C        0.39934540      -1.65194893      -3.37899399
C        0.97238922      -0.62685585      -4.43090248
Cl       1.58045578       0.80726433      -3.61358261
H       -0.26065063      -1.26190376      -2.67408180
H       -0.24088287      -2.43945503      -3.95207596
H        1.12717056      -2.10352516      -2.82990837
H        0.04806519      -0.35171700      -4.99048996
H        1.58861160      -1.01961708      -5.24343872
8
Properties=species:S:1:pos:R:3 name=EtCl mapped_smiles="[C:1]([C:2]([Cl:3])([H:7])[H:8])([H:4])([H:5])[H:6]" pbc="F F F"
C        0.04446983       1.91988182      -7.78419304
C       -1.08096123       2.06340599      -8.81184959
Cl      -1.89025307       0.49974823      -9.05281639
H        0.66630363       1.11724281      -8.07382774
H        0.65743446       2.77140236      -7.77524376
H       -0.37120247       1.83426094      -6.79362297
H       -0.78427696       2.38437462      -9.80068016
H       -1.78686714       2.79361916      -8.42179680
8
Properties=species:S:1:pos:R:3 name=EtCl mapped_smiles="[C:1]([C:2]([Cl:3])([H:7])[H:8])([H:4])([H:5])[H:6]" pbc="F F F"
C        1.63336754       3.67244911       4.03064728
C        0.92405128       2.34362411       3.88351059
Cl       1.72099876       1.28995705       2.61110687
H        0.95615196       4.25353050       4.65294647
H        2.60190773       3.70541573       4.57120132
H        1.71944427       4.26221657       3.05212784
H       -0.14416313       2.46243858       3.63235092
H        0.99877739       1.83592033       4.86614609
8
Properties=species:S:1:pos:R:3 name=EtCl mapped_smiles="[C:1]([C:2]([Cl:3])([H:7])[H:8])([H:4])([H:5])[H:6]" pbc="F F F"
C       -5.81646538      -5.43454933       1.14559555
C       -7.13884544      -5.49308205       0.48039246
Cl      -7.40836906      -7.03618813      -0.39183044
H       -5.01035881      -5.51710129       0.40608215
H       -5.54351616      -4.46873665       1.63410187
H       -5.71153069      -6.25753593       1.89614487
H       -7.22791100      -4.69645309      -0.21759796
H       -7.97958183      -5.48582268       1.20846558
8
Properties=species:S:1:pos:R:3 name=EtCl mapped_smiles="[C:1]([C:2]([Cl:3])([H:7])[H:8])([H:4])([H:5])[H:6]" pbc="F F F"
C       -2.90592575       0.78310204      -5.27745628
C       -2.08713150       1.44516373      -4.14319420
Cl      -1.85971451       3.11939049      -4.45619774
H       -2.39157104       0.74999237      -6.24925804
H       -3.13579559      -0.26961899      -4.99737358
H       -3.85412216       1.28665733      -5.51569939
H       -1.10493851       1.01660347      -3.97895622
H       -2.68068314       1.44496727      -3.17799950
8
Properties=species:S:1:pos:R:3 name=EtCl mapped_smiles="[C:1]([C:2]([Cl:3])([H:7])[H:8])([H:4])([H:5])[H:6]" pbc="F F F"
C       -5.81900787      -6.34165001      -4.48600769
C       -6.86779022      -5.27685738      -4.36969757
Cl      -7.81675911      -4.92136955      -5.76149750
H       -6.27936172      -7.33752060      -4.73087311
H       -5.17883110      -6.14776611      -5.35802460
H       -5.19230080      -6.50885010      -3.62668610
H       -6.30939674      -4.37737465      -4.08255768
H       -7.57397842      -5.48454094      -3.59656525
8
Properties=species:S:1:pos:R:3 name=EtCl mapped_smiles="[C:1]([C:2]([Cl:3])([H:7])[H:8])([H:4])([H:5])[H:6]" pbc="F F F"
C        1.93223000       2.72836685       2.49584007
C        2.45152473       1.60058212       3.49268723
Cl       3.82960320       0.75569916       2.94801903
H        2.79833412       3.32856750       2.28576469
H        1.68792534       2.35572052       1.51541138
H        1.06658745       3.34510040       2.89475822
H        1.70220757       0.81983948       3.59106827
H        2.83715630       1.97842789       4.43353653
8
Properties=species:S:1:pos:R:3 name=EtCl mapped_smiles="[C:1]([C:2]([Cl:3])([H:7])[H:8])([H:4])([H:5])[H:6]" pbc="F F F"
C       -0.43961716       0.46234131      -3.37431717
C       -0.69680405      -1.03747177      -3.08967972
Cl       0.87376785      -1.93057442      -3.21303940
H       -0.10320663       0.67295647      -4.42000961
H       -1.35681534       1.07113075      -3.26980972
H        0.33939743       0.84709930      -2.72081375
H       -1.36115265      -1.47207832      -3.83539963
H       -1.10274887      -1.17221642      -2.07558823
8
Properties=species:S:1:pos:R:3 name=EtCl mapped_smiles="[C:1]([C:2]([Cl:3])([H:7])[H:8])([H:4])([H:5])[H:6]" pbc="F F F"
C       -0.82944298      -3.58024406      -9.16944695
C       -1.13224983      -2.92004585      -7.76366997
Cl      -2.68065071      -1.96622467      -7.81562996
H       -1.58555794      -4.34902382      -9.43844223
H       -0.64237976      -2.77931023      -9.88091278
H        0.15924644      -4.09727287      -9.14716148
H       -0.35009956      -2.26081657      -7.30620003
H       -1.16517830      -3.76699257      -7.05374146
8
Properties=species:S:1:pos:R:3 name=EtCl mapped_smiles="[C:1]([C:2]([Cl:3])([H:7])[H:8])([H:4])([H:5])[H:6]" pbc="F F F"
C        8.28860283      -8.04556465       1.21230316
C        7.65142632      -6.73836708       0.90543747
Cl       5.97928619      -6.67965126       0.32497025
H        9.25422478      -7.73108864       1.68065643
H        7.80685997      -8.70366096       1.96684265
H        8.38837242      -8.65685463       0.31778336
H        8.27006340      -6.13180733       0.17758942
H        7.63669395      -5.99792671       1.67600632
8
Properties=species:S:1:pos:R:3 name=EtCl mapped_smiles="[C:1]([C:2]([Cl:3])([H:7])[H:8])([H:4])([H:5])[H:6]" pbc="F F F"
C        5.07706070      -1.75594330       5.23193741
C        4.96933937      -1.52938080       6.74244308
Cl       3.91431808      -2.74623489       7.55972099
H        4.06872749      -1.77571487       4.79569244
H        5.79340553      -1.07313919       4.74513245
H        5.38128090      -2.76456833       5.02965927
H        4.72363472      -0.50227737       6.91128159
H        5.91782570      -1.56834030       7.34408379
8
Properties=species:S:1:pos:R:3 name=EtCl mapped_smiles="[C:1]([C:2]([Cl:3])([H:7])[H:8])([H:4])([H:5])[H:6]" pbc="F F F"
C        3.81276894      -0.33621216       3.80695724
C        3.48636055       1.14522362       3.98873520
Cl       1.81361580       1.41837120       3.71451187
H        3.59269905      -0.66319847       2.82106018
H        4.87332344      -0.51346779       3.76483154
H        3.39817238      -0.92976379       4.58619690
H        4.04030037       1.69489861       3.27767563
H        3.76954079       1.54784775       4.93922806
8
Properties=species:S:1:pos:R:3 name=EtCl mapped_smiles="[C:1]([C:2]([Cl:3])([H:7])[H:8])([H:4])([H:5])[H:6]" pbc="F F F"
C       -0.08792496       4.94713783      -0.81803513
C       -1.49110603       4.88973427      -1.42420769
Cl      -1.96229744       3.09698677      -1.44655418
H        0.08886528       5.94273567      -0.40028572
H        0.02873802       4.20031548      -0.02578545
H        0.66536331       4.66048622      -1.57479286
H       -1.43313026       5.15769768      -2.46344757
H       -2.28581047       5.49135399      -0.91010094
8
Properties=species:S:1:pos:R:3 name=EtCl mapped_smiles="[C:1]([C:2]([Cl:3])([H:7])[H:8])([H:4])([H:5])[H:6]" pbc="F F F"
C        3.18717766      -3.29603958       1.74546051
C        3.68213844      -4.55073166       2.47196198
Cl       4.68610191      -4.10652924       4.02275848
H        4.05976868      -2.72200394       1.34546280
H        2.58406639      -3.50543976       0.89199066
H        2.68292046      -2.64561081       2.49191666
H        4.36034584      -5.18637848       1.83510208
H        2.84532166      -5.25122833       2.72818375
8
Properties=species:S:1:pos:R:3 name=EtCl mapped_smiles="[C:1]([C:2]([Cl:3])([H:7])[H:8])([H:4])([H:5])[H:6]" pbc="F F F"
C        0.01489258      -5.20684433       1.96660233
C        0.58634949      -4.24098969       0.97613144
Cl      -0.55954742      -3.79332352      -0.37277222
H       -0.23722076      -6.15462494       1.46976089
H        0.70271301      -5.54324341       2.76807785
H       -0.97460175      -4.87261200       2.34280396
H        1.52147675      -4.66350555       0.57367706
H        0.86869812      -3.31206512       1.45542908
8
Properties=species:S:1:pos:R:3 name=EtCl mapped_smiles="[C:1]([C:2]([Cl:3])([H:7])[H:8])([H:4])([H:5])[H:6]" pbc="F F F"
C       -1.12095833       2.69074440       6.59503174
C       -2.40846634       3.25541496       7.03704643
Cl      -3.72416496       2.05132103       7.15765572
H       -0.71856499       1.89327049       7.25937462
H       -1.12869453       2.35810280       5.55271530
H       -0.37624931       3.52260780       6.65504265
H       -2.76001740       3.94426155       6.25554085
H       -2.41541862       3.69330025       8.02315331
8
Properties=species:S:1:pos:R:3 name=EtCl mapped_smiles="[C:1]([C:2]([Cl:3])([H:7])[H:8])([H:4])([H:5])[H:6]" pbc="F F F"
C       -0.17968369       3.62316322       3.91657639
C       -0.79708672       4.32129288       5.16641235
Cl      -2.52811813       4.68183899       4.74541092
H        0.87199211       3.55840683       4.10928726
H       -0.48847580       2.58565712       3.70330429
H       -0.28466606       4.30297089       3.05838394
H       -0.30121994       5.21597290       5.54950714
H       -0.83588982       3.74731445       6.04956436
8
Properties=species:S:1:pos:R:3 name=EtCl mapped_smiles="[C:1]([C:2]([Cl:3])([H:7])[H:8])([H:4])([H:5])[H:6]" pbc="F F F"
C       -2.55908585       2.81756592       0.10247040
C       -3.21325684       2.67070770       1.44976044
Cl      -4.16945648       4.12188721       1.93007278
H       -3.27443314       2.91252136      -0.72715759
H       -1.80838013       3.58322144       0.27760696
H       -1.92495346       1.93618774      -0.16878319
H       -2.48404312       2.39241791       2.22348785
H       -3.99309158       1.88986969       1.42634201
8
Properties=species:S:1:pos:R:3 name=EtCl mapped_smiles="[C:1]([C:2]([Cl:3])([H:7])[H:8])([H:4])([H:5])[H:6]" pbc="F F F"
C       -7.75335503      -3.86361504       3.69789696
C       -9.15263748      -4.56144524       3.88297844
Cl     -10.08785439      -4.84544945       2.35613441
H       -7.27711296      -3.69142342       4.66254234
H       -7.02465630      -4.43673325       3.15224648
H       -7.80795860      -2.93616295       3.07502556
H       -9.94205093      -3.87701988       4.38939857
H       -9.05944252      -5.42497253       4.50926399
8
Properties=species:S:1:pos:R:3 name=EtCl mapped_smiles="[C:1]([C:2]([Cl:3])([H:7])[H:8])([H:4])([H:5])[H:6]" pbc="F F F"
C       -0.43889618      -2.13659477       7.71863365
C        0.62833023      -3.11146164       8.12300682
Cl       2.13026428      -2.14008141       8.21104240
H       -0.41071320      -1.72956085       6.68003845
H       -1.40583420      -2.65384674       7.67815590
H       -0.58802032      -1.29933739       8.45979118
H        0.83268356      -4.04092407       7.53396416
H        0.53672791      -3.49162865       9.13760948
8
Properties=species:S:1:pos:R:3 name=EtCl mapped_smiles="[C:1]([C:2]([Cl:3])([H:7])[H:8])([H:4])([H:5])[H:6]" pbc="F F F"
C       -0.44731140      -5.14376640       6.10857964
C       -0.17494202      -4.49203300       4.71774864
Cl       0.64645958      -5.67413902       3.60268974
H        0.35671997      -5.01926231       6.81828117
H       -1.33602905      -4.66528130       6.60791588
H       -0.61527252      -6.22692680       5.94156075
H        0.37220383      -3.55099678       4.91158485
H       -1.12396622      -4.21708107       4.15314865
8
Properties=species:S:1:pos:R:3 name=EtCl mapped_smiles="[C:1]([C:2]([Cl:3])([H:7])[H:8])([H:4])([H:5])[H:6]" pbc="F F F"
C       -0.56025505       3.22625923      -6.25687408
C        0.28623199       2.82419968      -5.12924194
Cl      -0.76121712       2.47074890      -3.75334930
H       -1.41155052       2.50447464      -6.37794495
H       -0.98308372       4.16422844      -6.03572083
H       -0.03066063       3.31925964      -7.17608643
H        0.94510269       3.64365578      -4.90875244
H        0.90329742       1.96242332      -5.42263031
