8
Properties=species:S:1:pos:R:3 name=EtCl mapped_smiles="[C:1]([C:2]([Cl:3])([H:7])[H:8])([H:4])([H:5])[H:6]" pbc="F F F"
C        0.00000000       0.00000000       0.00000000
C        0.44108582       0.84478760      -1.17179871
Cl       0.48074341       2.55943680      -0.79769897
H       -0.98927307       0.34962845       0.26214218
H       -0.13339233      -1.03561401      -0.22497177
H        0.73300171       0.03533936       0.87254333
H       -0.27302551       0.74641800      -1.96756172
H        1.41490173       0.55481720      -1.56580544
8
Properties=species:S:1:pos:R:3 name=EtCl mapped_smiles="[C:1]([C:2]([Cl:3])([H:7])[H:8])([H:4])([H:5])[H:6]" pbc="F F F"
C        0.00000000       0.00000000       0.00000000
C       -0.21798325       0.40229988       1.34442711
Cl      -1.88438416       0.88392639       1.56987190
H        1.07490921      -0.31349564      -0.14453316
H       -0.65057755      -0.80134010      -0.33231163
H       -0.21547699       0.85892296      -0.70142174
H        0.47294617       1.21548271       1.51792717
H       -0.08107376      -0.46498108       2.01709747
8
Properties=species:S:1:pos:R:3 name=EtCl mapped_smiles="[C:1]([C:2]([Cl:3])([H:7])[H:8])([H:4])([H:5])[H:6]" pbc="F F F"
C        0.00000000       0.00000000       0.00000000
C        1.30460358       0.69322968       0.01598358
Cl       1.11711502       2.37027740       0.78311920
H       -0.45949936      -0.16839027       0.98323822
H       -0.76435852       0.49078560      -0.62295723
H        0.07675552      -0.98027802      -0.46309471
H        1.65861893       0.82854652      -1.01392365
H        2.05904007       0.14372063       0.58796501
8
Properties=species:S:1:pos:R:3 name=EtCl mapped_smiles="[C:1]([C:2]([Cl:3])([H:7])[H:8])([H:4])([H:5])[H:6]" pbc="F F F"
C        0.00000000       0.00000000       0.00000000
C        1.30723572       0.45197678      -0.49112129
Cl       2.18009567       1.48833466       0.67871094
H        0.07134628      -0.44149399       1.02581978
H       -0.78342438       0.73115540      -0.08855247
H       -0.26655197      -0.80579758      -0.68902016
H        1.22818756       0.95528412      -1.52664566
H        1.97507095      -0.40228653      -0.61220741
8
Properties=species:S:1:pos:R:3 name=EtCl mapped_smiles="[C:1]([C:2]([Cl:3])([H:7])[H:8])([H:4])([H:5])[H:6]" pbc="F F F"
C        0.00000000       0.00000000       0.00000000
C        0.09206390      -0.94732094      -1.18659973
Cl       0.05856705      -0.15782928      -2.75657272
H       -1.03131485       0.48248100      -0.01986694
H        0.08889389      -0.64556313       0.87213516
H        0.81248856       0.69009972       0.20855713
H       -0.75215530      -1.72814178      -1.18252563
H        0.98179626      -1.52098656      -1.06147766
8
Properties=species:S:1:pos:R:3 name=EtCl mapped_smiles="[C:1]([C:2]([Cl:3])([H:7])[H:8])([H:4])([H:5])[H:6]" pbc="F F F"
C        0.00000000       0.00000000       0.00000000
C        0.38374519      -1.16937447      -0.93717575
Cl       1.98474121      -2.03560448      -0.56038475
H        0.39311981      -0.16710854       1.07863808
H        0.29534721       0.95895195      -0.50382423
H       -1.07016945       0.09143448       0.08108330
H        0.38959694      -0.81894493      -1.98112297
H       -0.34715843      -1.99517441      -0.98969841
8
Properties=species:S:1:pos:R:3 name=EtCl mapped_smiles="[C:1]([C:2]([Cl:3])([H:7])[H:8])([H:4])([H:5])[H:6]" pbc="F F F"
C        0.00000000       0.00000000       0.00000000
C       -1.41365051       0.67664337       0.30891609
Cl      -1.49130630       1.21367645       1.96081161
H        0.08313751      -1.00697327       0.49175262
H        0.04224777      -0.21605682      -1.07252884
H        0.85637283       0.69813538       0.16018105
H       -2.23343658      -0.07077026       0.20425224
H       -1.63501358       1.43888092      -0.41518784
8
Properties=species:S:1:pos:R:3 name=EtCl mapped_smiles="[C:1]([C:2]([Cl:3])([H:7])[H:8])([H:4])([H:5])[H:6]" pbc="F F F"
C        0.00000000       0.00000000       0.00000000
C       -1.20897293       0.30212021       0.88504410
Cl      -2.47133255      -0.94495201       0.77515411
H        0.62343979      -0.78082657       0.33554077
H       -0.33763504      -0.25946426      -1.01744843
H        0.53292084       0.92354393      -0.00739288
H       -1.61394882       1.26367760       0.54811859
H       -1.00143051       0.47491264       1.92671204
8
Properties=species:S:1:pos:R:3 name=EtCl mapped_smiles="[C:1]([C:2]([Cl:3])([H:7])[H:8])([H:4])([H:5])[H:6]" pbc="F F F"
C        0.00000000       0.00000000       0.00000000
C        0.38291168       1.16418648      -0.89295006
Cl      -0.41058159       1.14461708      -2.42367363
H        0.18882942       0.28532028       1.05765343
H       -1.04737282      -0.18151665      -0.17159843
H        0.61581802      -0.90357971      -0.23907471
H        1.43837166       1.21459770      -1.11891556
H        0.08370781       2.09863472      -0.42566872
8
Properties=species:S:1:pos:R:3 name=EtCl mapped_smiles="[C:1]([C:2]([Cl:3])([H:7])[H:8])([H:4])([H:5])[H:6]" pbc="F F F"
C        0.00000000       0.00000000       0.00000000
C       -0.75194740       1.36363029      -0.11401749
Cl      -0.83344078       2.50664711       1.28431320
H       -0.30492592      -0.72916412      -0.76355362
H        1.07268333       0.05356026      -0.02666473
H       -0.30583382      -0.53828812       0.88916016
H       -1.84773827       1.23944855      -0.27085876
H       -0.42096519       1.93469429      -0.95632935
8
Properties=species:S:1:pos:R:3 name=EtCl mapped_smiles="[C:1]([C:2]([Cl:3])([H:7])[H:8])([H:4])([H:5])[H:6]" pbc="F F F"
C        0.00000000       0.00000000       0.00000000
C       -0.56862068      -0.90570068       1.05937576
Cl      -0.53859711      -0.26127243       2.71063232
H        1.03166199       0.34211349       0.20891953
H        0.10376358      -0.56854630      -0.85906219
H       -0.62404823       0.91734314      -0.15538025
H        0.02774811      -1.77117538       1.16730118
H       -1.58000946      -1.11848450       0.71779633
8
Properties=species:S:1:pos:R:3 name=EtCl mapped_smiles="[C:1]([C:2]([Cl:3])([H:7])[H:8])([H:4])([H:5])[H:6]" pbc="F F F"
C        0.00000000       0.00000000       0.00000000
C        0.96688461       0.81183243      -0.86406136
Cl       0.02098846       1.39283371      -2.22022438
H       -0.10850334      -0.89023018      -0.53678322
H        0.49248505      -0.26910782       0.99420547
H       -0.96864891       0.45405006       0.08415604
H        1.75958443       0.11369324      -1.14472008
H        1.46813583       1.66784096      -0.36392784
8
Properties=species:S:1:pos:R:3 name=EtCl mapped_smiles="[C:1]([C:2]([Cl:3])([H:7])[H:8])([H:4])([H:5])[H:6]" pbc="F F F"
C        0.00000000       0.00000000       0.00000000
C       -1.36147308      -0.28622818       0.55419922
Cl      -1.97295761      -1.85473251      -0.16909599
H        0.11555862      -0.20817757      -1.05066299
H        0.10538864       1.08470345       0.04632378
H        0.75802994      -0.60802269       0.47783089
H       -2.05955124       0.57005119       0.39403915
H       -1.37834930      -0.42652512       1.62936211
8
Properties=species:S:1:pos:R:3 name=EtCl mapped_smiles="[C:1]([C:2]([Cl:3])([H:7])[H:8])([H:4])([H:5])[H:6]" pbc="F F F"
C        0.00000000       0.00000000       0.00000000
C       -1.25978851       0.72759056      -0.21415329
Cl      -0.78118896       1.96058846      -1.37654114
H        0.35494995      -0.50332260      -0.93858337
H        0.76103592       0.64036179       0.50788498
H       -0.13063812      -0.83901596       0.70742035
H       -1.59381104       1.25729370       0.65553665
H       -2.04076385       0.10406113      -0.47681808
8
Properties=species:S:1:pos:R:3 name=EtCl mapped_smiles="[C:1]([C:2]([Cl:3])([H:7])[H:8])([H:4])([H:5])[H:6]" pbc="F F F"
C        0.00000000       0.00000000       0.00000000
C        0.99867630       0.62120056      -0.95029449
Cl       2.64928055      -0.04531097      -0.72166061
H       -0.98008537       0.20391083      -0.36073303
H        0.00300980      -1.10156250       0.08620834
H        0.15226364       0.54026794       0.94219589
H        1.19865036       1.66884613      -0.85350037
H        0.71770859       0.34796906      -1.93777084
8
Properties=species:S:1:pos:R:3 name=EtCl mapped_smiles="[C:1]([C:2]([Cl:3])([H:7])[H:8])([H:4])([H:5])[H:6]" pbc="F F F"
C        0.00000000       0.00000000       0.00000000
C        1.18991470       0.10803604       0.90697289
Cl       2.65584183       0.52355194      -0.15400124
H        0.06319046      -0.85858536      -0.74927902
H       -0.91710281      -0.12665558       0.57541847
H       -0.30773163       0.97080994      -0.42683983
H        1.17700958      -0.76197052       1.54756546
H        1.01959991       0.92663193       1.58655167
8
Properties=species:S:1:pos:R:3 name=EtCl mapped_smiles="[C:1]([C:2]([Cl:3])([H:7])[H:8])([H:4])([H:5])[H:6]" pbc="F F F"
C        0.00000000       0.00000000       0.00000000
C        0.03548431      -0.83923531      -1.29071045
Cl      -0.36016083       0.20255852      -2.76203156
H        0.97422791       0.52926826       0.27194977
H       -0.85725021       0.69768143      -0.01467514
H       -0.20536804      -0.57494164       0.91809845
H       -0.64587021      -1.70210457      -1.18121338
H        1.02193832      -1.21362877      -1.51366043
8
Properties=species:S:1:pos:R:3 name=EtCl mapped_smiles="[C:1]([C:2]([Cl:3])([H:7])[H:8])([H:4])([H:5])[H:6]" pbc="F F F"
C        0.00000000       0.00000000       0.00000000
C       -1.55651855      -0.12058640       0.05746078
Cl      -2.19072151      -0.38646317       1.62006378
H        0.40725899      -0.97373009       0.19095230
H        0.38163567       0.43027878      -0.96203232
H        0.45937920       0.64206696       0.78482056
H       -1.91692734      -0.89852142      -0.59773254
H       -1.94433212       0.85011673      -0.32231522
8
Properties=species:S:1:pos:R:3 name=EtCl mapped_smiles="[C:1]([C:2]([Cl:3])([H:7])[H:8])([H:4])([H:5])[H:6]" pbc="F F F"
C        0.00000000       0.00000000       0.00000000
C       -1.54597855       0.09614563      -0.01681709
Cl      -2.07142258       1.66246033      -0.74096870
H        0.55085373       0.92676735       0.35518646
H        0.38132477      -0.81779861       0.61785698
H        0.36648178      -0.22393036      -0.97201347
H       -1.84569550       0.15453720       1.04150391
H       -2.04740906      -0.72323608      -0.56015778
8
Properties=species:S:1:pos:R:3 name=EtCl mapped_smiles="[C:1]([C:2]([Cl:3])([H:7])[H:8])([H:4])([H:5])[H:6]" pbc="F F F"
C        0.00000000       0.00000000       0.00000000
C        1.49918175       0.11754417       0.11810303
Cl       2.34112358      -1.33179092      -0.53023911
H       -0.36236763      -0.90205383       0.49940872
H       -0.45529556       0.91673088       0.44049835
H       -0.31913567       0.02930450      -1.05902100
H        1.78576088       0.27976608       1.14655304
H        1.80654335       1.03049088      -0.41759872
8
Properties=species:S:1:pos:R:3 name=EtCl mapped_smiles="[C:1]([C:2]([Cl:3])([H:7])[H:8])([H:4])([H:5])[H:6]" pbc="F F F"
C        0.00000000       0.00000000       0.00000000
C       -1.05566406      -0.89931488      -0.70319366
Cl      -0.20879936      -2.13049889      -1.75712585
H        0.85972595       0.27726936      -0.67002869
H       -0.49440575       0.92663765       0.39780045
H        0.46284676      -0.52638435       0.87464905
H       -1.63539314      -0.35911942      -1.43714905
H       -1.74403191      -1.37717438       0.01575470
8
Properties=species:S:1:pos:R:3 name=EtCl mapped_smiles="[C:1]([C:2]([Cl:3])([H:7])[H:8])([H:4])([H:5])[H:6]" pbc="F F F"
C        0.00000000       0.00000000       0.00000000
C       -0.74696159      -0.81606293      -1.02653885
Cl      -0.18169785      -2.42819977      -1.15007401
H       -0.36038208       1.04998779       0.01406479
H       -0.00039291      -0.49218750       0.96879959
H        1.01955414       0.08535767      -0.32733154
H       -0.57215881      -0.40114594      -2.01080704
H       -1.83269310      -0.82333374      -0.90391159
8
Properties=species:S:1:pos:R:3 name=EtCl mapped_smiles="[C:1]([C:2]([Cl:3])([H:7])[H:8])([H:4])([H:5])[H:6]" pbc="F F F"
C        0.00000000       0.00000000       0.00000000
C       -0.86489105      -1.12524414       0.65430450
Cl      -0.14429474      -2.70783043       0.53069687
H        0.13150024      -0.22359276      -1.06562805
H       -0.44192505       0.96799469       0.09819412
H        0.95905304       0.12851906       0.49443436
H       -1.79011154      -1.23999786       0.04678345
H       -1.18154907      -0.87080002       1.70056152
8
Properties=species:S:1:pos:R:3 name=EtCl mapped_smiles="[C:1]([C:2]([Cl:3])([H:7])[H:8])([H:4])([H:5])[H:6]" pbc="F F F"
C        0.00000000       0.00000000       0.00000000
C       -1.09414673      -0.35836029       1.03410339
Cl      -2.66573334       0.31106949       0.53538513
H        0.99327087      -0.32452011       0.35968399
H       -0.08776855      -0.49537849      -0.99096298
H        0.06964874       1.11655426      -0.13172913
H       -0.89637756      -0.03028107       2.03501129
H       -1.35069656      -1.44751740       0.95860672
8
Properties=species:S:1:pos:R:3 name=EtCl mapped_smiles="[C:1]([C:2]([Cl:3])([H:7])[H:8])([H:4])([H:5])[H:6]" pbc="F F F"
C        0.00000000       0.00000000       0.00000000
C       -0.90078545      -0.23632431       1.30497932
Cl      -0.22642708      -1.34866333       2.43567848
H       -0.44380188       0.70050049      -0.70472717
H        1.01129150       0.35787582       0.21551704
H        0.15846062      -0.92262268      -0.55990219
H       -1.85062218      -0.57628250       1.07492828
H       -1.11636925       0.73999786       1.78089333
8
Properties=species:S:1:pos:R:3 name=EtCl mapped_smiles="[C:1]([C:2]([Cl:3])([H:7])[H:8])([H:4])([H:5])[H:6]" pbc="F F F"
C        0.00000000       0.00000000       0.00000000
C       -0.63124847      -1.15587234       0.77498627
Cl      -1.96105576      -0.51424599       1.89523506
H       -0.66787720       0.64296913      -0.62197113
H        0.51247787       0.76496696       0.67497826
H        0.72527695      -0.38442230      -0.72008705
H        0.04232407      -1.79479599       1.34582901
H       -1.02714539      -1.98690796       0.13408852
8
Properties=species:S:1:pos:R:3 name=EtCl mapped_smiles="[C:1]([C:2]([Cl:3])([H:7])[H:8])([H:4])([H:5])[H:6]" pbc="F F F"
C        0.00000000       0.00000000       0.00000000
C       -0.78027725       1.30647469      -0.04383850
Cl       0.20788383       2.69355583      -0.76984024
H       -0.59608650      -0.82455254       0.44201660
H        0.26338768      -0.23652267      -1.02976608
H        0.87203026       0.08375168       0.64789581
H       -1.02245140       1.69002914       0.93700409
H       -1.62974548       1.24391556      -0.61795044
8
Properties=species:S:1:pos:R:3 name=EtCl mapped_smiles="[C:1]([C:2]([Cl:3])([H:7])[H:8])([H:4])([H:5])[H:6]" pbc="F F F"
C        0.00000000       0.00000000       0.00000000
C        1.45950317      -0.29730797      -0.32062912
Cl       1.90985107      -1.95874786      -0.09476852
H       -0.25394058      -0.34861374       0.98049164
H       -0.20391464       1.02917290      -0.10829926
H       -0.66914368      -0.63529205      -0.57206535
H        2.09751511       0.25469971       0.34744644
H        1.59729004      -0.02280235      -1.37496758
8
Properties=species:S:1:pos:R:3 name=EtCl mapped_smiles="[C:1]([C:2]([Cl:3])([H:7])[H:8])([H:4])([H:5])[H:6]" pbc="F F F"
C        0.00000000       0.00000000       0.00000000
C        1.10098267       0.97352219       0.01034927
Cl       1.21051407       1.84102249       1.53545761
H       -0.24473190      -0.48758316       0.95125198
H       -0.97214890       0.53844833      -0.21413803
H        0.15098190      -0.80873871      -0.78358841
H        1.03322220       1.71231842      -0.81098938
H        2.04421997       0.45939636       0.06742096
8
Properties=species:S:1:pos:R:3 name=EtCl mapped_smiles="[C:1]([C:2]([Cl:3])([H:7])[H:8])([H:4])([H:5])[H:6]" pbc="F F F"
C        0.00000000       0.00000000       0.00000000
C       -0.78070641      -1.15808105      -0.54844666
Cl       0.28638458      -2.54894257      -0.92784691
H       -0.72262764       0.78012085       0.33066177
H        0.76189804      -0.34339142       0.73421478
H        0.60443306       0.42790985      -0.73809624
H       -1.33706856      -0.89386749      -1.37983322
H       -1.53701401      -1.53923798       0.12060928
8
Properties=species:S:1:pos:R:3 name=EtCl mapped_smiles="[C:1]([C:2]([Cl:3])([H:7])[H:8])([H:4])([H:5])[H:6]" pbc="F F F"
C        0.00000000       0.00000000       0.00000000
C        1.30180931       0.62744141      -0.49637604
Cl       1.47723961       0.51176834      -2.25361252
H       -0.83255577       0.58969879      -0.40908813
H        0.06130791      -1.08543396      -0.24108505
H       -0.07121086       0.18086624       1.04265213
H        2.18572426       0.11313248      -0.04308319
H        1.30904961       1.69002151      -0.24248886
8
Properties=species:S:1:pos:R:3 name=EtCl mapped_smiles="[C:1]([C:2]([Cl:3])([H:7])[H:8])([H:4])([H:5])[H:6]" pbc="F F F"
C        0.00000000       0.00000000       0.00000000
C        0.19885635       0.65484238       1.32670212
Cl       0.10178185       2.44565201       1.22217941
H        0.70306015       0.29821777      -0.75971985
H       -0.14389610      -1.10923004       0.03974533
H       -0.97710609       0.21899796      -0.33262253
H        1.18192291       0.38254547       1.69231033
H       -0.52616882       0.34809113       2.04756546
8
Properties=species:S:1:pos:R:3 name=EtCl mapped_smiles="[C:1]([C:2]([Cl:3])([H:7])[H:8])([H:4])([H:5])[H:6]" pbc="F F F"
C        0.00000000       0.00000000       0.00000000
C       -0.13209534      -0.30869293       1.42433548
Cl       0.40469360       1.02910614       2.44905853
H       -0.39733124       0.98915482      -0.21066284
H        1.08340454       0.04294968      -0.20087433
H       -0.41425323      -0.68728256      -0.69404602
H        0.45702744      -1.17919922       1.68862915
H       -1.12996292      -0.47504425       1.67578125
8
Properties=species:S:1:pos:R:3 name=EtCl mapped_smiles="[C:1]([C:2]([Cl:3])([H:7])[H:8])([H:4])([H:5])[H:6]" pbc="F F F"
C        0.00000000       0.00000000       0.00000000
C        0.11247635       0.89160347       1.19235229
Cl       0.37640381      -0.19254112       2.76585770
H        0.79919052      -0.75310516      -0.06498909
H       -0.89172745      -0.73834610       0.12348747
H       -0.11407852       0.56067848      -0.89844704
H       -0.76527405       1.46818924       1.37495041
H        0.99849701       1.50779915       1.10388947
8
Properties=species:S:1:pos:R:3 name=EtCl mapped_smiles="[C:1]([C:2]([Cl:3])([H:7])[H:8])([H:4])([H:5])[H:6]" pbc="F F F"
C        0.00000000       0.00000000       0.00000000
C        0.46396637       1.39665794       0.19150925
Cl       2.09564972       1.68567848      -0.38303185
H       -1.08296967      -0.14085388       0.26941299
H        0.13999176      -0.42165756      -1.01018524
H        0.55197144      -0.60726166       0.71329117
H        0.37333679       1.64866257       1.24248123
H       -0.21501923       2.00246048      -0.33282661
8
Properties=species:S:1:pos:R:3 name=EtCl mapped_smiles="[C:1]([C:2]([Cl:3])([H:7])[H:8])([H:4])([H:5])[H:6]" pbc="F F F"
C        0.00000000       0.00000000       0.00000000
C       -0.83940125      -1.24239159      -0.22869492
Cl      -2.47465134      -0.88336945      -0.92488670
H        0.36455917       0.31094360      -0.94527245
H       -0.59723282       0.76424599       0.44879150
H        0.95133209      -0.18834496       0.55472946
H       -0.98397446      -1.74038124       0.67480850
H       -0.27298737      -1.90733337      -0.91709137
8
Properties=species:S:1:pos:R:3 name=EtCl mapped_smiles="[C:1]([C:2]([Cl:3])([H:7])[H:8])([H:4])([H:5])[H:6]" pbc="F F F"
C        0.00000000       0.00000000       0.00000000
C       -1.42969513      -0.26047707       0.04339790
Cl      -2.25600243       0.50978661      -1.31693840
H        0.57586098      -0.41679955      -0.80038643
H        0.15420151       1.08900833       0.10908127
H        0.48608398      -0.41680717       0.85579491
H       -1.86156273       0.14595032       0.96289253
H       -1.70606041      -1.36968422      -0.01971054
8
Properties=species:S:1:pos:R:3 name=EtCl mapped_smiles="[C:1]([C:2]([Cl:3])([H:7])[H:8])([H:4])([H:5])[H:6]" pbc="F F F"
C        0.00000000       0.00000000       0.00000000
C       -0.86108398      -1.25706291       0.15634346
Cl      -0.69292831      -2.02203560       1.79821777
H       -0.01539993       0.26094818      -1.06769180
H       -0.34538651       0.81370354       0.62683296
H        1.02904892      -0.07711792       0.20441437
H       -0.48829651      -1.99398804      -0.56710625
H       -1.91338730      -1.06629181       0.01280785
8
Properties=species:S:1:pos:R:3 name=EtCl mapped_smiles="[C:1]([C:2]([Cl:3])([H:7])[H:8])([H:4])([H:5])[H:6]" pbc="F F F"
C        0.00000000       0.00000000       0.00000000
C        0.06390572      -1.53260422      -0.05607796
Cl      -0.23956108      -2.33623314       1.51378441
H        0.34193420       0.47208405       0.96590233
H        0.65306091       0.32691193      -0.84767342
H       -0.97403526       0.43306160      -0.16791534
H        1.02939606      -1.82115746      -0.42661667
H       -0.74771690      -1.97950363      -0.68808746
8
Properties=species:S:1:pos:R:3 name=EtCl mapped_smiles="[C:1]([C:2]([Cl:3])([H:7])[H:8])([H:4])([H:5])[H:6]" pbc="F F F"
C        0.00000000       0.00000000       0.00000000
C       -1.22083473       0.58894348      -0.60663986
Cl      -2.24593163       1.43710899       0.59145737
H       -0.14649391      -0.86911964       0.67585373
H        0.64165115      -0.35813332      -0.79356003
H        0.60706520       0.70242119       0.58521652
H       -1.87140846      -0.19772720      -1.04567719
H       -0.91910744       1.25153732      -1.37670517
