$molecule
0 1
  C   -12.86034303  -12.91696439  -13.29498191
  C   -14.26149278  -12.76633725  -13.39213557
  C   -14.75962358  -11.66777310  -14.09621997
  C   -13.88282685  -10.68669400  -14.74517150
  C   -12.52047257  -10.86213956  -14.63498874
  C   -11.97979646  -11.98787961  -13.90358348
  H   -12.46632676  -13.77736935  -12.77223773
  H   -14.97913270  -13.55677304  -13.03347678
  H   -15.77886491  -11.68567929  -14.48548312
  H   -14.32708268   -9.73720822  -15.15673251
  H   -11.85704331  -10.24633298  -15.23268409
  H   -10.86828523  -12.20230374  -13.90418239
  C   -13.23197446  -16.86229320  -14.37822232
  C   -14.57170377  -16.63426776  -14.80406842
  C   -14.82217297  -15.64666266  -15.83093152
  C   -13.71677670  -15.11688704  -16.55931363
  C   -12.41290555  -15.52395911  -16.22651562
  C   -12.21283231  -16.40941901  -15.12938580
  H   -13.05829129  -17.50747294  -13.54446683
  H   -15.42374692  -17.03314204  -14.32842526
  H   -15.67594800  -15.13019366  -16.03830228
  H   -13.93622861  -14.32712836  -17.21154675
  H   -11.49196133  -15.13848777  -16.81172070
  H   -11.12968716  -16.61120601  -14.98010144
  C   -19.25874600  -14.89333911  -14.47868056
  C   -18.29698071  -14.18739791  -13.70074840
  C   -17.76873669  -14.70668406  -12.51508422
  C   -18.18896756  -15.92540450  -12.06072898
  C   -19.18606458  -16.63523574  -12.83309741
  C   -19.74478421  -16.16915412  -14.02801509
  H   -19.78347668  -14.34282775  -15.33372874
  H   -17.82133755  -13.21114535  -13.91565604
  H   -17.02122769  -14.12167830  -11.95207019
  H   -17.85523877  -16.28017135  -11.12806411
  H   -19.57966122  -17.63652415  -12.57595344
  H   -20.52551923  -16.67622275  -14.56694980
$end

    $rem
    JOBTYPE                     FORCE
    METHOD                      B3LYP
    BASIS                       def2-SVPD
    XC_GRID                     000099000590
    NL_GRID                     000050000194
    MAX_SCF_CYCLES              100
    SCF_CONVERGENCE             8
    THRESH                      13
    BASIS_LIN_DEP_THRESH        13
    INCDFT_DENDIFF_THRESH       14
    INCDFT_GRIDDIFF_THRESH      14
    MEM_STATIC                  8000
    MEM_TOTAL                   80000
    SYMMETRY                    FALSE
    SYM_IGNORE                  TRUE
    !LOWDIN_POPULATION           TRUE
    CHELPG                      TRUE
    !ESP_CHARGES                 1
    RESP_CHARGES                1
    !HIRSHFELD                   TRUE
    !CM5                         TRUE
    DFT_D D3_BJ
AUX_BASIS                   RIJK-def2-qzvpp
    occ_ri_k                    TRUE
    ri_k_grad                   TRUE
        $end

$archive
enable_archive = True !Turns on generation of Archive
$end

