14
Properties=species:S:1:pos:R:3 name=An mapped_smiles="[N:1]([c:2]1[c:3]([H:10])[c:4]([H:11])[c:5]([H:12])[c:6]([H:13])[c:7]1[H:14])([H:8])[H:9]" pbc="F F F"
N        0.00000000       0.00000000       0.00000000
C       -0.89618301      -0.31587601      -1.05245209
C       -1.44250488       0.71961403      -1.79396439
C       -2.45428848       0.49106789      -2.74958038
C       -2.99836922      -0.75744057      -2.76751518
C       -2.48138618      -1.78966331      -2.11227036
C       -1.45820045      -1.63143349      -1.16047287
H        0.12580299       0.93764305       0.23014450
H        0.07224846      -0.58707619       0.81198883
H       -1.11537552       1.74301720      -1.70906067
H       -2.99460411       1.23650932      -3.27644157
H       -3.76379585      -0.94849205      -3.48334312
H       -3.03002548      -2.76217842      -2.15030289
H       -1.25664139      -2.45101738      -0.46356964
14
Properties=species:S:1:pos:R:3 name=An mapped_smiles="[N:1]([c:2]1[c:3]([H:10])[c:4]([H:11])[c:5]([H:12])[c:6]([H:13])[c:7]1[H:14])([H:8])[H:9]" pbc="F F F"
N       -6.83982086      -5.32976723       1.82023621
C       -7.34853745      -4.05724907       1.36934853
C       -8.64177704      -4.07743454       0.85910416
C       -9.13493347      -2.82904625       0.40024567
C       -8.45129013      -1.59461975       0.50442886
C       -7.17477417      -1.60901451       0.96170235
C       -6.63732147      -2.79135704       1.46490097
H       -7.40657806      -6.13476944       1.61675453
H       -5.82209015      -5.39416885       1.88375664
H       -9.28456879      -4.95831108       0.80834770
H      -10.21878815      -2.88541412       0.04979515
H       -9.05408859      -0.69002724       0.37118149
H       -6.60893631      -0.74524307       1.03976250
H       -5.70601654      -2.69887543       1.97658730
14
Properties=species:S:1:pos:R:3 name=An mapped_smiles="[N:1]([c:2]1[c:3]([H:10])[c:4]([H:11])[c:5]([H:12])[c:6]([H:13])[c:7]1[H:14])([H:8])[H:9]" pbc="F F F"
N        0.00000000       0.00000000       0.00000000
C        0.36425781       1.16795540       0.77399445
C        0.32325745       1.10170174       2.23997879
C        0.65398598       2.28066635       2.98752594
C        1.10062027       3.41902161       2.29140472
C        1.08403587       3.44243431       0.89171219
C        0.73332405       2.38220024       0.15196609
H       -0.52910995       0.28792381      -0.86433792
H       -0.43187141      -0.80405807       0.53778839
H       -0.02833176       0.17545509       2.69192886
H        0.73537254       2.29398537       4.10469818
H        1.49153519       4.26586342       2.87716675
H        1.33261871       4.39203262       0.40260315
H        0.69937134       2.47799873      -0.93861771
14
Properties=species:S:1:pos:R:3 name=An mapped_smiles="[N:1]([c:2]1[c:3]([H:10])[c:4]([H:11])[c:5]([H:12])[c:6]([H:13])[c:7]1[H:14])([H:8])[H:9]" pbc="F F F"
N        7.37867546      -4.70059013      -4.95089912
C        6.12633705      -4.53308678      -4.39194298
C        5.51210785      -5.60562706      -3.68165588
C        4.48521042      -5.30090904      -2.79512787
C        3.87308502      -4.00622368      -2.79233170
C        4.45125198      -2.96945763      -3.59882736
C        5.55673409      -3.20089531      -4.37506294
H        7.63147545      -4.05399895      -5.64858818
H        7.53610802      -5.71888542      -5.10519028
H        5.83752823      -6.57546043      -3.75275612
H        4.04994774      -6.13053703      -2.26899147
H        2.97635460      -3.81847954      -2.17207146
H        3.98405647      -1.96722221      -3.58724213
H        6.01354408      -2.41444206      -4.92255592
14
Properties=species:S:1:pos:R:3 name=An mapped_smiles="[N:1]([c:2]1[c:3]([H:10])[c:4]([H:11])[c:5]([H:12])[c:6]([H:13])[c:7]1[H:14])([H:8])[H:9]" pbc="F F F"
N       -1.93105698      -1.21752739       3.19046593
C       -0.59135246      -1.69005585       3.20750809
C       -0.20589828      -2.89542198       2.63322639
C        1.13810730      -3.25790215       2.68343544
C        2.08399582      -2.47942543       3.29337883
C        1.63596725      -1.23289299       3.84615135
C        0.35123444      -0.85239601       3.75670815
H       -2.52233887      -1.90172386       3.65647316
H       -1.95105171      -0.36863327       3.75758171
H       -0.91585159      -3.46820641       2.13453865
H        1.41217422      -4.13392258       2.21694183
H        3.11748505      -2.87289238       3.32488823
H        2.40828323      -0.60082817       4.29548454
H        0.04461288       0.10611534       4.17136192
14
Properties=species:S:1:pos:R:3 name=An mapped_smiles="[N:1]([c:2]1[c:3]([H:10])[c:4]([H:11])[c:5]([H:12])[c:6]([H:13])[c:7]1[H:14])([H:8])[H:9]" pbc="F F F"
N       -2.45452881       2.69620132       7.16456032
C       -3.29199982       2.94787216       6.03241920
C       -3.45643425       2.01833344       5.03868294
C       -4.23517036       2.28061295       3.87937355
C       -4.80204582       3.54354858       3.69629097
C       -4.74298096       4.45763016       4.75676918
C       -3.98913574       4.15420914       5.94085884
H       -2.63036346       3.28351593       7.93166542
H       -2.45123100       1.70886993       7.32991219
H       -2.98496246       1.07897949       5.18657112
H       -4.18904305       1.61325836       3.04662895
H       -5.30859566       3.82277679       2.74484825
H       -5.18168640       5.38098526       4.55121803
H       -3.97564125       4.86841965       6.73672676
14
Properties=species:S:1:pos:R:3 name=An mapped_smiles="[N:1]([c:2]1[c:3]([H:10])[c:4]([H:11])[c:5]([H:12])[c:6]([H:13])[c:7]1[H:14])([H:8])[H:9]" pbc="F F F"
N       -0.47712708      -3.62008667      -2.49663544
C       -0.60372162      -3.31487656      -1.15038300
C        0.38616562      -3.64740372      -0.23199463
C        0.24179459      -3.53998947       1.13339996
C       -0.99574280      -3.11351395       1.65681458
C       -2.06394577      -2.89596558       0.78564072
C       -1.89737320      -3.09614563      -0.59627151
H        0.33686829      -3.40200806      -2.87586212
H       -1.30254745      -3.33634949      -3.03984451
H        1.37530136      -4.07038498      -0.58351517
H        1.08964157      -3.56937790       1.78548813
H       -1.19337845      -3.03621674       2.73146820
H       -3.00446701      -2.57871628       1.15397644
H       -2.81971741      -3.02839279      -1.22950363
14
Properties=species:S:1:pos:R:3 name=An mapped_smiles="[N:1]([c:2]1[c:3]([H:10])[c:4]([H:11])[c:5]([H:12])[c:6]([H:13])[c:7]1[H:14])([H:8])[H:9]" pbc="F F F"
N        3.79749298       3.63225365      -0.43524551
C        2.82429123       4.46631050       0.23441124
C        1.62957764       3.82743645       0.71086693
C        0.62140656       4.57718849       1.33887291
C        0.84847641       5.90914726       1.63304138
C        2.10803223       6.52661705       1.29299927
C        3.08289909       5.82243919       0.53579903
H        4.67494583       4.08511162      -0.48779297
H        3.81671333       2.65522575      -0.46037483
H        1.50276375       2.79655266       0.48378754
H       -0.28039169       4.03386688       1.64270210
H        0.04806519       6.45430565       2.11945534
H        2.27255249       7.58089638       1.58797455
H        4.07420349       6.25891876       0.35233307
14
Properties=species:S:1:pos:R:3 name=An mapped_smiles="[N:1]([c:2]1[c:3]([H:10])[c:4]([H:11])[c:5]([H:12])[c:6]([H:13])[c:7]1[H:14])([H:8])[H:9]" pbc="F F F"
N        0.00000000       0.00000000       0.00000000
C       -0.08944511      -0.00199509       1.43484497
C       -1.31537437      -0.23826981       2.11901474
C       -1.37747002      -0.23317337       3.49815750
C       -0.24173546       0.10606194       4.20436859
C        1.01996040       0.37229538       3.54966354
C        1.10709000       0.27144623       2.15575790
H       -0.91455078       0.27325630      -0.39548111
H        0.76880455       0.39601135      -0.50376892
H       -2.25901604      -0.45942116       1.59265900
H       -2.34758568      -0.39732552       3.99316788
H       -0.29636383       0.22175789       5.30024338
H        1.92625809       0.78060722       4.09241486
H        2.04300690       0.44066429       1.58098221
14
Properties=species:S:1:pos:R:3 name=An mapped_smiles="[N:1]([c:2]1[c:3]([H:10])[c:4]([H:11])[c:5]([H:12])[c:6]([H:13])[c:7]1[H:14])([H:8])[H:9]" pbc="F F F"
N        0.00000000       0.00000000       0.00000000
C        0.05300522       0.51649857      -1.32007790
C        1.04775238       0.09481049      -2.22015572
C        1.28024673       0.89872742      -3.30185890
C        0.44412994       1.92996216      -3.73826599
C       -0.65953827       2.25599670      -2.91550827
C       -0.76912308       1.55800629      -1.72325516
H       -0.42787552       0.56154251       0.70834351
H        0.95431519      -0.18175507       0.25362206
H        1.82651520      -0.63729477      -2.06139183
H        2.11632156       0.61977386      -4.02426338
H        0.69272232       2.47467041      -4.67585182
H       -1.17771530       3.15990448      -3.13849258
H       -1.49937057       1.87512970      -0.99548340
14
Properties=species:S:1:pos:R:3 name=An mapped_smiles="[N:1]([c:2]1[c:3]([H:10])[c:4]([H:11])[c:5]([H:12])[c:6]([H:13])[c:7]1[H:14])([H:8])[H:9]" pbc="F F F"
N        0.00000000       0.00000000       0.00000000
C        0.86213303      -0.33684158      -1.01078033
C        0.58166885      -1.53369713      -1.83216858
C        1.41080093      -1.82323265      -2.91598129
C        2.44200516      -0.84967422      -3.27636719
C        2.65037537       0.31892014      -2.53944016
C        1.92547989       0.53250122      -1.40339661
H       -0.51987076      -0.77631569       0.42815781
H        0.43394089       0.57210350       0.73474503
H       -0.25147629      -2.25886345      -1.63713455
H        1.38507080      -2.65452003      -3.62875748
H        3.17356491      -1.13271141      -4.06958580
H        3.38462448       1.06087494      -2.82893372
H        2.02166748       1.53218842      -0.95891190
14
Properties=species:S:1:pos:R:3 name=An mapped_smiles="[N:1]([c:2]1[c:3]([H:10])[c:4]([H:11])[c:5]([H:12])[c:6]([H:13])[c:7]1[H:14])([H:8])[H:9]" pbc="F F F"
N        0.00000000       0.00000000       0.00000000
C        0.17659760      -0.23285484      -1.40878296
C       -0.82931137      -0.76534271      -2.22088623
C       -0.61679077      -0.88935661      -3.57494926
C        0.53204346      -0.30145454      -4.15728569
C        1.55352402       0.19008255      -3.41874504
C        1.38128662       0.20559502      -2.03195190
H       -0.48882675      -0.67811394       0.52894974
H        0.92178726       0.11648750       0.45394897
H       -1.72189331      -1.22276115      -1.81602478
H       -1.42234039      -1.29515266      -4.14662743
H        0.56133652      -0.32374763      -5.24025536
H        2.38871384       0.65050507      -3.89364433
H        2.19808960       0.57161522      -1.40839005
14
Properties=species:S:1:pos:R:3 name=An mapped_smiles="[N:1]([c:2]1[c:3]([H:10])[c:4]([H:11])[c:5]([H:12])[c:6]([H:13])[c:7]1[H:14])([H:8])[H:9]" pbc="F F F"
N        0.43389130       3.89849854      -1.80260468
C        0.39345551       5.23032761      -1.36903954
C        0.59972954       5.62401581       0.03181839
C        0.58625031       6.98656273       0.37125206
C        0.34373283       8.00272942      -0.54600716
C        0.13227463       7.60532188      -1.91203690
C        0.17713356       6.23911667      -2.27917290
H        0.00703812       3.59288406      -2.68918037
H        0.50659561       3.18357468      -1.02211189
H        0.77156830       4.86922073       0.81086922
H        0.63456345       7.25784874       1.42898369
H        0.17872810       8.99043083      -0.13038063
H       -0.01977921       8.39938164      -2.65735817
H        0.11771965       6.02029800      -3.38974571
14
Properties=species:S:1:pos:R:3 name=An mapped_smiles="[N:1]([c:2]1[c:3]([H:10])[c:4]([H:11])[c:5]([H:12])[c:6]([H:13])[c:7]1[H:14])([H:8])[H:9]" pbc="F F F"
N        2.14010048      -7.16976547       2.28409004
C        1.59688377      -7.49380875       3.54188728
C        0.22091484      -7.87570572       3.56399727
C       -0.50237465      -8.03547287       4.75240898
C        0.05672455      -7.72436142       5.93391228
C        1.43422127      -7.33076859       5.91892052
C        2.21168709      -7.26335526       4.76747322
H        1.41451645      -7.14422226       1.59458351
H        2.64387894      -6.29504776       2.19514275
H       -0.33733368      -8.25535965       2.69383049
H       -1.49789429      -8.43072891       4.73940468
H       -0.43635368      -7.62857437       6.89497566
H        1.89059830      -7.11605453       6.89114380
H        3.32701302      -7.09830856       4.76353264
14
Properties=species:S:1:pos:R:3 name=An mapped_smiles="[N:1]([c:2]1[c:3]([H:10])[c:4]([H:11])[c:5]([H:12])[c:6]([H:13])[c:7]1[H:14])([H:8])[H:9]" pbc="F F F"
N        0.00000000       0.00000000       0.00000000
C        0.65961456      -1.30264473       0.07325554
C        0.04891396      -2.45857620       0.62373924
C        0.82664871      -3.61121941       0.76939964
C        2.08418655      -3.67612076       0.21976089
C        2.64281845      -2.54226875      -0.37184715
C        1.95360184      -1.34406471      -0.34213638
H       -0.83904839       0.10845947       0.53581429
H        0.53045273       0.84508324      -0.31929016
H       -0.96756935      -2.33349419       1.03656197
H        0.48429871      -4.50917435       1.31550026
H        2.69951248      -4.62176704       0.32377815
H        3.66083145      -2.65818405      -0.71990776
H        2.50666046      -0.43786049      -0.61984444
14
Properties=species:S:1:pos:R:3 name=An mapped_smiles="[N:1]([c:2]1[c:3]([H:10])[c:4]([H:11])[c:5]([H:12])[c:6]([H:13])[c:7]1[H:14])([H:8])[H:9]" pbc="F F F"
N        1.41408348      -4.68029594       5.76623917
C        1.69939613      -3.52659225       4.96105766
C        3.03725433      -2.98436546       4.97369766
C        3.40464211      -1.91322517       4.15245056
C        2.37681580      -1.30429459       3.39138222
C        1.07432556      -1.93103790       3.29090118
C        0.73544121      -2.96376610       4.10376167
H        0.47552109      -5.02942467       5.89169312
H        1.97548103      -4.68576622       6.59202003
H        3.70415115      -3.44701576       5.72543335
H        4.43121719      -1.49654198       4.10393143
H        2.57089615      -0.42587471       2.75932884
H        0.31731606      -1.49805260       2.60414696
H       -0.27038574      -3.37295151       4.03318977
14
Properties=species:S:1:pos:R:3 name=An mapped_smiles="[N:1]([c:2]1[c:3]([H:10])[c:4]([H:11])[c:5]([H:12])[c:6]([H:13])[c:7]1[H:14])([H:8])[H:9]" pbc="F F F"
N        0.00000000       0.00000000       0.00000000
C        0.02349854       0.38750458       1.33347321
C        0.51464272       1.70275879       1.72117424
C        0.80293083       1.88164902       3.04949379
C        0.52324295       0.92623901       4.05389214
C       -0.14102173      -0.24177170       3.66058731
C       -0.38049889      -0.45938492       2.31850433
H        0.37672234       0.61994934      -0.68689537
H       -0.14165115      -0.97856903      -0.25261497
H        0.80176163       2.44529343       1.02122498
H        1.14842415       2.86007309       3.43024635
H        0.88637543       1.15674591       5.09137344
H       -0.24753189      -1.03388977       4.41009140
H       -0.71763420      -1.45238113       2.06125641
14
Properties=species:S:1:pos:R:3 name=An mapped_smiles="[N:1]([c:2]1[c:3]([H:10])[c:4]([H:11])[c:5]([H:12])[c:6]([H:13])[c:7]1[H:14])([H:8])[H:9]" pbc="F F F"
N        0.00000000       0.00000000       0.00000000
C       -0.64200783      -1.11994171      -0.62167549
C       -0.58622551      -2.41536331      -0.12391853
C       -0.98036957      -3.55042267      -0.87646675
C       -1.52110291      -3.38195419      -2.11929512
C       -1.55730247      -2.07027054      -2.62808037
C       -1.13149261      -0.92148209      -1.89792824
H        0.72494698      -0.22504425       0.61117744
H        0.23471069       0.72820282      -0.67907715
H       -0.08791542      -2.67518616       0.80335426
H       -0.93845558      -4.54800797      -0.40387917
H       -1.78846169      -4.21715546      -2.68657684
H       -1.87832069      -1.91968536      -3.67128563
H       -1.16526794       0.08454514      -2.33513069
14
Properties=species:S:1:pos:R:3 name=An mapped_smiles="[N:1]([c:2]1[c:3]([H:10])[c:4]([H:11])[c:5]([H:12])[c:6]([H:13])[c:7]1[H:14])([H:8])[H:9]" pbc="F F F"
N        0.00000000       0.00000000       0.00000000
C       -0.56601715       1.09346199       0.63832855
C        0.03793716       2.42551804       0.57759857
C       -0.65890121       3.58671761       0.99267960
C       -1.94614410       3.45123482       1.52096939
C       -2.47130394       2.17301369       1.67436218
C       -1.82691956       0.99029350       1.20824051
H       -0.43528557      -0.93400383       0.13606644
H        1.03345680      -0.01848793      -0.16426849
H        1.01613426       2.59097672       0.04938889
H       -0.08643150       4.46962929       1.04056168
H       -2.53787994       4.28604507       1.92429352
H       -3.39531898       1.97723770       2.12911987
H       -2.25576973      -0.06179237       1.20688629
14
Properties=species:S:1:pos:R:3 name=An mapped_smiles="[N:1]([c:2]1[c:3]([H:10])[c:4]([H:11])[c:5]([H:12])[c:6]([H:13])[c:7]1[H:14])([H:8])[H:9]" pbc="F F F"
N        0.00000000       0.00000000       0.00000000
C       -0.01658630       0.37973022      -1.37235832
C       -0.50810051       1.57316208      -1.76820183
C       -0.52983665       1.94360733      -3.11900139
C       -0.06113434       1.06888199      -4.15421104
C        0.45136070      -0.17019272      -3.66273308
C        0.53522301      -0.49253464      -2.33939934
H       -0.15593147      -0.97584152       0.24125862
H       -0.50160599       0.72072601       0.60629463
H       -0.89349556       2.24034119      -1.04663658
H       -0.92992592       2.92728806      -3.42336082
H        0.01732445       1.34471512      -5.17521477
H        0.87159538      -0.82803345      -4.40811729
H        0.99477768      -1.41791153      -1.95078850
14
Properties=species:S:1:pos:R:3 name=An mapped_smiles="[N:1]([c:2]1[c:3]([H:10])[c:4]([H:11])[c:5]([H:12])[c:6]([H:13])[c:7]1[H:14])([H:8])[H:9]" pbc="F F F"
N        2.62132454      -2.22123528      -5.95121002
C        2.97617912      -1.45563316      -4.76408386
C        3.20666695      -2.18911552      -3.58509064
C        3.47639656      -1.48729324      -2.41364288
C        3.32871819      -0.05893517      -2.38621521
C        3.03251457       0.61316872      -3.56404877
C        2.94347572      -0.10784340      -4.76000977
H        2.11126137      -3.04566383      -5.79304504
H        2.26100349      -1.58225441      -6.61902618
H        3.22221565      -3.30279160      -3.56693268
H        3.68175697      -2.01240349      -1.51681900
H        3.44168282       0.52813911      -1.46263504
H        2.86616707       1.72155190      -3.53340149
H        2.63726234       0.42251778      -5.65241241
14
Properties=species:S:1:pos:R:3 name=An mapped_smiles="[N:1]([c:2]1[c:3]([H:10])[c:4]([H:11])[c:5]([H:12])[c:6]([H:13])[c:7]1[H:14])([H:8])[H:9]" pbc="F F F"
N       -6.95801926      -8.56097984      -5.24419594
C       -5.71245956      -8.69023705      -4.59196281
C       -5.50221252      -8.12145042      -3.29488182
C       -4.21193695      -8.21444511      -2.71790504
C       -3.10917282      -8.85709190      -3.46658516
C       -3.39577484      -9.47919273      -4.71492958
C       -4.70037079      -9.34665489      -5.24791527
H       -7.80225372      -8.18710136      -4.79324532
H       -7.03538895      -8.94330406      -6.19708824
H       -6.32369995      -7.64254570      -2.82899284
H       -4.04908371      -7.79084587      -1.73026085
H       -2.10700226      -8.91180229      -3.14294243
H       -2.52893066      -9.86343956      -5.22418785
H       -4.88314819      -9.77864647      -6.24488640
14
Properties=species:S:1:pos:R:3 name=An mapped_smiles="[N:1]([c:2]1[c:3]([H:10])[c:4]([H:11])[c:5]([H:12])[c:6]([H:13])[c:7]1[H:14])([H:8])[H:9]" pbc="F F F"
N        0.00000000       0.00000000       0.00000000
C       -0.00740814       1.38998222      -0.21169662
C       -0.96191216       1.98890877      -1.10224533
C       -0.92442131       3.28073120      -1.48083878
C        0.04510880       4.13656425      -0.89332581
C        0.93583298       3.60676003       0.08896255
C        0.92734146       2.26980782       0.41072464
H       -0.84086037      -0.42791748      -0.08542633
H        0.69686508      -0.32915688       0.67395401
H       -1.74691582       1.41692734      -1.51635361
H       -1.54953957       3.59659767      -2.32410812
H        0.04041100       5.18639565      -1.16514969
H        1.63634109       4.23253441       0.55656052
H        1.57557678       2.06292343       1.21928024
14
Properties=species:S:1:pos:R:3 name=An mapped_smiles="[N:1]([c:2]1[c:3]([H:10])[c:4]([H:11])[c:5]([H:12])[c:6]([H:13])[c:7]1[H:14])([H:8])[H:9]" pbc="F F F"
N        0.00000000       0.00000000       0.00000000
C        0.83930206      -1.02311325      -0.45201874
C        1.97764969      -0.72512817      -1.25162888
C        2.64698792      -1.72798920      -1.89047241
C        2.29129410      -3.06701279      -1.78839111
C        1.24190521      -3.45263290      -0.95548630
C        0.44150543      -2.43309784      -0.38591766
H       -0.25852966      -0.14704132       0.98091125
H        0.25750351       0.95783997      -0.27592087
H        2.39223480       0.26988602      -1.40129089
H        3.47247314      -1.48567200      -2.54874420
H        2.90352631      -3.85443878      -2.24094772
H        0.92546844      -4.42472458      -0.87613297
H       -0.43141556      -2.74385452       0.21944809
14
Properties=species:S:1:pos:R:3 name=An mapped_smiles="[N:1]([c:2]1[c:3]([H:10])[c:4]([H:11])[c:5]([H:12])[c:6]([H:13])[c:7]1[H:14])([H:8])[H:9]" pbc="F F F"
N        0.00000000       0.00000000       0.00000000
C        1.35592461      -0.30553627      -0.22930908
C        1.89198875      -0.35623360      -1.51525497
C        3.20757103      -0.71124458      -1.79321289
C        4.01272774      -1.07357025      -0.70683670
C        3.51391792      -0.95098495       0.59389877
C        2.19378281      -0.64661598       0.88051987
H       -0.26971054       0.21818733       0.98748207
H       -0.41749001       0.64266205      -0.68173599
H        1.17542839      -0.16975021      -2.27461433
H        3.46325111      -0.84368324      -2.84692001
H        4.99057388      -1.53072548      -0.77877045
H        4.11249161      -1.23465538       1.41302872
H        1.85972595      -0.57286453       1.90485382
14
Properties=species:S:1:pos:R:3 name=An mapped_smiles="[N:1]([c:2]1[c:3]([H:10])[c:4]([H:11])[c:5]([H:12])[c:6]([H:13])[c:7]1[H:14])([H:8])[H:9]" pbc="F F F"
N        0.00000000       0.00000000       0.00000000
C       -1.24059868      -0.13171768       0.61268234
C       -1.96012688       1.03048706       0.79391479
C       -3.10409546       1.02468109       1.51488113
C       -3.54025078      -0.13607788       2.23546982
C       -2.77946281      -1.34114456       2.01876450
C       -1.65439224      -1.30986786       1.19160080
H       -0.08295631       0.67364883      -0.72663498
H        0.46321487      -0.87920380      -0.29620743
H       -1.59039116       1.96702194       0.39158630
H       -3.71000481       1.96266556       1.62681961
H       -4.50964546      -0.08504105       2.78023529
H       -3.11741066      -2.28854752       2.46544266
H       -1.05627632      -2.25043488       0.99287796
14
Properties=species:S:1:pos:R:3 name=An mapped_smiles="[N:1]([c:2]1[c:3]([H:10])[c:4]([H:11])[c:5]([H:12])[c:6]([H:13])[c:7]1[H:14])([H:8])[H:9]" pbc="F F F"
N        0.00000000       0.00000000       0.00000000
C        0.48393250      -1.18735695      -0.55988693
C       -0.32855988      -1.97107506      -1.33929443
C        0.19955826      -3.01627922      -2.11323929
C        1.58635330      -3.32946587      -2.10489082
C        2.41140747      -2.57785606      -1.21015549
C        1.86996078      -1.51154900      -0.46257401
H       -1.03436089      -0.05321503       0.10802650
H        0.57183838       0.44224548       0.74639511
H       -1.35187340      -1.63063622      -1.55982590
H       -0.44779968      -3.48599625      -2.81775856
H        1.99406052      -4.09412956      -2.72077751
H        3.47497940      -2.79819870      -1.14128685
H        2.53171921      -0.92058945       0.15925980
14
Properties=species:S:1:pos:R:3 name=An mapped_smiles="[N:1]([c:2]1[c:3]([H:10])[c:4]([H:11])[c:5]([H:12])[c:6]([H:13])[c:7]1[H:14])([H:8])[H:9]" pbc="F F F"
N       -5.71450996       1.98113632      -4.56798172
C       -6.27127266       3.14060402      -3.93542480
C       -5.72737312       4.49548912      -4.18087006
C       -6.31865501       5.65401268      -3.67461395
C       -7.48938370       5.52585793      -2.80468750
C       -7.89733696       4.24193382      -2.45154953
C       -7.26715279       3.07304192      -2.98210526
H       -5.27548409       2.19147301      -5.50845718
H       -6.29105186       1.19575691      -4.57860947
H       -4.82257080       4.54593468      -4.87731934
H       -5.82978249       6.63738060      -3.94866562
H       -8.02751350       6.37842369      -2.31682968
H       -8.70781517       3.98779869      -1.76681900
H       -7.64090538       2.12187767      -2.70633316
14
Properties=species:S:1:pos:R:3 name=An mapped_smiles="[N:1]([c:2]1[c:3]([H:10])[c:4]([H:11])[c:5]([H:12])[c:6]([H:13])[c:7]1[H:14])([H:8])[H:9]" pbc="F F F"
N        0.00000000       0.00000000       0.00000000
C       -0.07547379       1.05864143       0.89813995
C        1.23363495       1.45104027       1.43975449
C        1.31225586       2.54099083       2.30409241
C        0.14273453       3.29999542       2.64669037
C       -1.07897568       2.91954613       2.12913513
C       -1.23542404       1.81270409       1.20956039
H        0.85559082      -0.04871178      -0.58025742
H       -0.84838867      -0.27075386      -0.46629715
H        2.06549072       0.81834793       1.25764084
H        2.26834869       2.74028015       2.73283386
H        0.17955399       4.08012390       3.40958786
H       -1.95463562       3.52665138       2.60014343
H       -2.23223114       1.48553467       0.88210297
14
Properties=species:S:1:pos:R:3 name=An mapped_smiles="[N:1]([c:2]1[c:3]([H:10])[c:4]([H:11])[c:5]([H:12])[c:6]([H:13])[c:7]1[H:14])([H:8])[H:9]" pbc="F F F"
N        0.00000000       0.00000000       0.00000000
C        0.36252594      -1.02921867       0.89325905
C       -0.66220665      -1.58271599       1.66518784
C       -0.33152962      -2.60017014       2.61904907
C        1.04362679      -3.03745842       2.63345718
C        2.03509521      -2.39114571       1.87135506
C        1.74540329      -1.39392281       1.01076508
H       -0.97167587      -0.02577209      -0.25834656
H        0.47014809       0.12036514      -0.89071465
H       -1.67662048      -1.24531937       1.57836914
H       -1.17485237      -3.08836555       3.09504700
H        1.32557106      -3.82067871       3.31488228
H        3.05728531      -2.75695229       1.96748352
H        2.53628349      -0.95656395       0.44074440
14
Properties=species:S:1:pos:R:3 name=An mapped_smiles="[N:1]([c:2]1[c:3]([H:10])[c:4]([H:11])[c:5]([H:12])[c:6]([H:13])[c:7]1[H:14])([H:8])[H:9]" pbc="F F F"
N        0.00000000       0.00000000       0.00000000
C       -0.10836792      -1.33879089      -0.05649948
C       -1.36523438      -2.02019882       0.16614532
C       -1.44723511      -3.42857742      -0.01563644
C       -0.35514832      -4.14079666      -0.55535889
C        0.87296104      -3.49758339      -0.86349869
C        0.97505951      -2.11038780      -0.54966354
H        0.88880157       0.43113327      -0.21384811
H       -0.72321510       0.58789444       0.47874832
H       -2.28075981      -1.51085472       0.42463303
H       -2.38962936      -3.95067024       0.11460114
H       -0.54731178      -5.21490288      -0.81333923
H        1.68122292      -4.08386040      -1.33001328
H        1.92446136      -1.63329697      -0.81291962
14
Properties=species:S:1:pos:R:3 name=An mapped_smiles="[N:1]([c:2]1[c:3]([H:10])[c:4]([H:11])[c:5]([H:12])[c:6]([H:13])[c:7]1[H:14])([H:8])[H:9]" pbc="F F F"
N        0.00000000       0.00000000       0.00000000
C        1.09792519       0.55707741      -0.75374985
C        1.70595741       1.77377892      -0.33279419
C        2.57089424       2.44659424      -1.13555908
C        2.87886620       1.94081688      -2.44810867
C        2.40366173       0.72753525      -2.83633423
C        1.47495461       0.02292252      -2.03578186
H       -0.08437347       0.31953621       0.91685867
H        0.05554771      -0.99652863      -0.02972031
H        1.54950905       2.25506020       0.67340851
H        2.88721275       3.48421288      -0.84109879
H        3.56657600       2.51808357      -3.06871796
H        2.62784004       0.16885185      -3.77881622
H        1.02294350      -0.84839058      -2.44113159
14
Properties=species:S:1:pos:R:3 name=An mapped_smiles="[N:1]([c:2]1[c:3]([H:10])[c:4]([H:11])[c:5]([H:12])[c:6]([H:13])[c:7]1[H:14])([H:8])[H:9]" pbc="F F F"
N        0.70791817       8.36643028       5.79157829
C        1.61442566       7.56109428       5.06133080
C        1.19960213       6.60583115       4.17234230
C        2.16713905       5.90772629       3.40997505
C        3.54383087       6.15998459       3.61862373
C        3.95696831       7.13701439       4.51935387
C        2.99831009       7.83419609       5.24636650
H       -0.22987556       8.58742332       5.41780281
H        1.01641083       9.15289116       6.38995552
H        0.13948631       6.38586807       3.99908257
H        1.91026306       5.12927628       2.69308662
H        4.20119286       5.58039474       2.90493965
H        5.06225967       7.28340721       4.56669807
H        3.29992867       8.66779900       5.82202339
14
Properties=species:S:1:pos:R:3 name=An mapped_smiles="[N:1]([c:2]1[c:3]([H:10])[c:4]([H:11])[c:5]([H:12])[c:6]([H:13])[c:7]1[H:14])([H:8])[H:9]" pbc="F F F"
N        0.00000000       0.00000000       0.00000000
C        0.83022690       0.77839279      -0.86344147
C        1.27782822       0.22994614      -2.06990814
C        2.07372665       0.98243713      -2.95613098
C        2.46693039       2.34233856      -2.63591003
C        2.01912689       2.87716675      -1.38311005
C        1.18512726       2.08714676      -0.47563934
H        0.10615540       0.12793350       0.96149445
H       -0.05997086      -0.98195648      -0.30496216
H        0.93383408      -0.72564316      -2.35562134
H        2.43748474       0.55759811      -3.85599899
H        3.07173157       2.87666702      -3.30743408
H        2.24096298       3.88942719      -1.20905304
H        0.91525650       2.56478500       0.50186157
14
Properties=species:S:1:pos:R:3 name=An mapped_smiles="[N:1]([c:2]1[c:3]([H:10])[c:4]([H:11])[c:5]([H:12])[c:6]([H:13])[c:7]1[H:14])([H:8])[H:9]" pbc="F F F"
N        1.86685371       6.07604218       1.71549988
C        1.37327003       6.82623672       2.81834030
C        2.28699493       7.58112907       3.53631592
C        1.85227013       8.16904259       4.73937607
C        0.55829620       7.90935326       5.27887344
C       -0.36272430       7.16837120       4.52781868
C        0.02575684       6.66588593       3.25732422
H        2.61728096       6.54472351       1.14454460
H        1.17297554       5.76088333       1.06987381
H        3.30559921       7.64840508       3.19264603
H        2.56169510       8.72785759       5.37235832
H        0.32092476       8.18166924       6.30765343
H       -1.29956627       6.81125259       4.99751282
H       -0.58524895       6.01219177       2.68247032
14
Properties=species:S:1:pos:R:3 name=An mapped_smiles="[N:1]([c:2]1[c:3]([H:10])[c:4]([H:11])[c:5]([H:12])[c:6]([H:13])[c:7]1[H:14])([H:8])[H:9]" pbc="F F F"
N        0.00000000       0.00000000       0.00000000
C       -0.55670357       0.12887192       1.28195190
C        0.10244370      -0.56578255       2.33172989
C       -0.52629280      -0.62612724       3.56756592
C       -1.85301018      -0.11465263       3.74238968
C       -2.56201744       0.42043877       2.68726349
C       -1.92072105       0.60435486       1.38795853
H        0.94409752      -0.35857964      -0.04998016
H       -0.20105743       0.69285583      -0.70117950
H        1.18600845      -0.81771660       2.22904587
H        0.00558281      -1.00802803       4.35761261
H       -2.40003777      -0.26549149       4.64052200
H       -3.59764671       0.68402100       2.76650238
H       -2.54487419       0.90665817       0.56031799
14
Properties=species:S:1:pos:R:3 name=An mapped_smiles="[N:1]([c:2]1[c:3]([H:10])[c:4]([H:11])[c:5]([H:12])[c:6]([H:13])[c:7]1[H:14])([H:8])[H:9]" pbc="F F F"
N        1.94243622       3.94665146      -5.17946815
C        1.18322182       4.58418655      -4.21487236
C        0.40548897       3.89082718      -3.26230431
C       -0.46816826       4.55540848      -2.34342766
C       -0.47882652       5.95264435      -2.29719734
C        0.30971527       6.64872742      -3.34898376
C        1.06108284       5.95914078      -4.25897026
H        1.93803787       2.94158936      -5.15247536
H        1.88986397       4.29466248      -6.11513710
H        0.68644142       2.83678436      -3.09318733
H       -0.97643852       3.92774582      -1.56098175
H       -1.05044174       6.51286697      -1.54079056
H        0.23826408       7.76748466      -3.43749428
H        1.61421776       6.60857010      -4.92724037
14
Properties=species:S:1:pos:R:3 name=An mapped_smiles="[N:1]([c:2]1[c:3]([H:10])[c:4]([H:11])[c:5]([H:12])[c:6]([H:13])[c:7]1[H:14])([H:8])[H:9]" pbc="F F F"
N        0.00000000       0.00000000       0.00000000
C       -1.37480927       0.24361229       0.12273216
C       -2.14478302       0.33344460      -1.07320595
C       -3.51737976       0.50593185      -0.98072243
C       -4.11854935       0.73795891       0.23147392
C       -3.36059952       0.62756348       1.43828773
C       -2.00857925       0.35656357       1.40310860
H        0.38476181       0.50318146      -0.81119728
H        0.44365692       0.29244995       0.84739304
H       -1.62873077       0.33568001      -2.04586792
H       -4.11624908       0.57714272      -1.90237427
H       -5.22034073       0.86930847       0.31393814
H       -3.80768204       0.84346962       2.42185020
H       -1.43844604       0.16201973       2.32828712
14
Properties=species:S:1:pos:R:3 name=An mapped_smiles="[N:1]([c:2]1[c:3]([H:10])[c:4]([H:11])[c:5]([H:12])[c:6]([H:13])[c:7]1[H:14])([H:8])[H:9]" pbc="F F F"
N        4.10274124      -3.95605469       0.93868256
C        3.76279449      -3.39431763      -0.31993484
C        4.70141220      -2.96920013      -1.23925972
C        4.31668472      -2.57788086      -2.57751083
C        2.95022964      -2.41603088      -2.87995148
C        1.99518967      -2.66436005      -1.82596779
C        2.36793900      -3.28849792      -0.68989563
H        3.63390732      -4.78241730       1.17654800
H        5.10326004      -4.01998901       1.18708420
H        5.79038620      -3.05322266      -1.00894356
H        5.10632324      -2.39083862      -3.35786438
H        2.58971024      -2.06620789      -3.88922310
H        0.95499039      -2.38578033      -1.94585228
H        1.65034485      -3.52427673       0.10111237
14
Properties=species:S:1:pos:R:3 name=An mapped_smiles="[N:1]([c:2]1[c:3]([H:10])[c:4]([H:11])[c:5]([H:12])[c:6]([H:13])[c:7]1[H:14])([H:8])[H:9]" pbc="F F F"
N        0.00000000       0.00000000       0.00000000
C        1.22372437      -0.30268478      -0.64078140
C        1.11938477      -1.24575424      -1.65648460
C        2.17305374      -1.52952576      -2.58879471
C        3.30775833      -0.65542603      -2.46517944
C        3.44596481       0.27301025      -1.41489983
C        2.42031860       0.39278030      -0.48236656
H        0.12249374       0.80292130       0.65921974
H       -0.43900681      -0.73153687       0.55705070
H        0.19794083      -1.73601913      -1.78888893
H        2.08210373      -2.32615280      -3.29259491
H        4.13816071      -0.83966064      -3.10369492
H        4.33390427       0.87218094      -1.27627182
H        2.47676849       1.20862579       0.26857758
