14
Properties=species:S:1:pos:R:3 name=An mapped_smiles="[N:1]([c:2]1[c:3]([H:10])[c:4]([H:11])[c:5]([H:12])[c:6]([H:13])[c:7]1[H:14])([H:8])[H:9]" pbc="F F F"
N        9.61115074      -4.22513390      -3.46565819
C        8.60100746      -3.31348991      -3.34015465
C        8.66897011      -2.23315239      -2.47474670
C        7.76566505      -1.15348244      -2.55150986
C        6.62093544      -1.30943871      -3.37658501
C        6.44946861      -2.46501732      -4.11321831
C        7.46215248      -3.43214417      -4.15777397
H        9.44050407      -5.02939034      -4.11174583
H       10.15738487      -4.40815163      -2.61409378
H        9.54058266      -2.17484474      -1.84296036
H        7.85455132      -0.25798988      -1.93044662
H        5.74895096      -0.64072227      -3.36658287
H        5.45089149      -2.61220741      -4.64113426
H        7.33290672      -4.35625267      -4.71646690
14
Properties=species:S:1:pos:R:3 name=An mapped_smiles="[N:1]([c:2]1[c:3]([H:10])[c:4]([H:11])[c:5]([H:12])[c:6]([H:13])[c:7]1[H:14])([H:8])[H:9]" pbc="F F F"
N       -2.92626762       0.44175720      -4.80220032
C       -3.75868416       1.55605316      -4.43792534
C       -5.16405678       1.51161957      -4.54102898
C       -5.93610573       2.63635254      -4.20262337
C       -5.38891029       3.78049088      -3.72807884
C       -3.98328209       3.89124298      -3.63746262
C       -3.20014381       2.78854752      -4.04204750
H       -1.92331886       0.56611633      -4.72422409
H       -3.25851822      -0.46209145      -4.51074791
H       -5.68555641       0.63821411      -4.96140671
H       -6.99033356       2.61874008      -4.26784515
H       -6.07196236       4.55030823      -3.47825623
H       -3.60059166       4.80797195      -3.23701286
H       -2.15250969       2.94737625      -3.99384689
14
Properties=species:S:1:pos:R:3 name=An mapped_smiles="[N:1]([c:2]1[c:3]([H:10])[c:4]([H:11])[c:5]([H:12])[c:6]([H:13])[c:7]1[H:14])([H:8])[H:9]" pbc="F F F"
N        4.33830452       6.56182671       0.88133621
C        5.12612152       5.53300285       0.32115936
C        4.61537170       4.17292404       0.36678314
C        5.34419060       3.13029099      -0.09688187
C        6.65637589       3.40150452      -0.52201462
C        7.10844994       4.74995804      -0.68844986
C        6.39957047       5.78750229      -0.12157822
H        4.70016098       7.54457664       0.82651520
H        3.41955566       6.33694839       1.31368637
H        3.66470528       3.92952728       0.77206802
H        4.84799194       2.17890739      -0.21232605
H        7.30966759       2.53292465      -0.89640045
H        8.16216087       4.93527031      -1.07999420
H        6.78216171       6.83700562      -0.28204346
14
Properties=species:S:1:pos:R:3 name=An mapped_smiles="[N:1]([c:2]1[c:3]([H:10])[c:4]([H:11])[c:5]([H:12])[c:6]([H:13])[c:7]1[H:14])([H:8])[H:9]" pbc="F F F"
N        4.02976036      -0.18479538      -1.08564377
C        3.71403503       0.99802399      -0.29573250
C        3.55484200       0.87507248       1.09007835
C        3.10811424       1.93242073       1.89169312
C        2.87795448       3.18679428       1.35358429
C        3.10056305       3.29270554      -0.02166367
C        3.61250496       2.26551628      -0.83004570
H        3.73422432      -0.08510780      -2.01921272
H        3.72065163      -1.03391075      -0.72703743
H        3.74422264      -0.14091682       1.49017334
H        2.97245216       1.68447113       2.91955566
H        2.64955521       4.12180901       1.95843887
H        3.06229401       4.27793121      -0.45946312
H        3.97116089       2.45744896      -1.83057594
14
Properties=species:S:1:pos:R:3 name=An mapped_smiles="[N:1]([c:2]1[c:3]([H:10])[c:4]([H:11])[c:5]([H:12])[c:6]([H:13])[c:7]1[H:14])([H:8])[H:9]" pbc="F F F"
N        4.45002747      -0.29043770       1.61703300
C        4.09108353       0.99609947       1.12507057
C        2.93785858       1.66422462       1.49410820
C        2.54008865       2.87650490       0.90687370
C        3.34800339       3.47348976      -0.15313148
C        4.47035980       2.72733498      -0.62272835
C        4.83705139       1.54474831       0.05426788
H        4.89262390      -0.87750053       0.93171501
H        3.59342957      -0.79378319       1.89748955
H        2.33743286       1.33176613       2.29280663
H        1.61364746       3.43543434       1.25984001
H        3.06568909       4.37849617      -0.66466713
H        5.10078049       3.12646675      -1.43336678
H        5.69862366       1.02313423      -0.20923805
14
Properties=species:S:1:pos:R:3 name=An mapped_smiles="[N:1]([c:2]1[c:3]([H:10])[c:4]([H:11])[c:5]([H:12])[c:6]([H:13])[c:7]1[H:14])([H:8])[H:9]" pbc="F F F"
N       -3.14671516      -2.47936630       3.15866661
C       -3.12624168      -1.99419785       4.48010826
C       -2.00468826      -2.13971329       5.31877708
C       -1.96432114      -1.51058960       6.57374954
C       -3.02223015      -0.82056427       7.16190910
C       -4.22442245      -0.77572632       6.40937233
C       -4.29460144      -1.37458038       5.10376549
H       -2.27911568      -2.25536346       2.61755943
H       -3.94639397      -2.40505981       2.51883507
H       -1.10761452      -2.70681000       4.98362923
H       -1.10162354      -1.69147491       7.18364525
H       -3.01195908      -0.41804123       8.16477394
H       -5.12484360      -0.38362122       6.92749977
H       -5.21577644      -1.26105881       4.51677132
14
Properties=species:S:1:pos:R:3 name=An mapped_smiles="[N:1]([c:2]1[c:3]([H:10])[c:4]([H:11])[c:5]([H:12])[c:6]([H:13])[c:7]1[H:14])([H:8])[H:9]" pbc="F F F"
N       -7.96311188      -8.60904694       1.08488083
C       -7.46284676      -7.59147072       0.24006271
C       -8.36330223      -6.76477814      -0.49079895
C       -7.83486748      -5.74827957      -1.29341888
C       -6.50259018      -5.38208580      -1.20283127
C       -5.65751266      -6.10063171      -0.34978485
C       -6.16238785      -7.21892929       0.38056183
H       -7.43085670      -8.63693047       2.02573013
H       -8.92291069      -8.69489288       1.30744934
H       -9.46442032      -6.94503021      -0.52074432
H       -8.51365852      -5.24897575      -1.96746445
H       -6.10464478      -4.58172989      -1.81703949
H       -4.59021378      -5.78129959      -0.23622131
H       -5.56290054      -7.75868797       1.07177353
14
Properties=species:S:1:pos:R:3 name=An mapped_smiles="[N:1]([c:2]1[c:3]([H:10])[c:4]([H:11])[c:5]([H:12])[c:6]([H:13])[c:7]1[H:14])([H:8])[H:9]" pbc="F F F"
N        2.80580902       1.44765282       5.66037369
C        2.15806389       2.65691185       5.74710846
C        2.21224403       3.38968468       6.97897530
C        1.53243446       4.62663841       7.06137276
C        0.71204376       5.14729118       6.08377647
C        0.67727470       4.42196083       4.85093880
C        1.34464073       3.15293312       4.72812843
H        2.92188644       1.01067543       4.74096680
H        3.60781479       1.25986290       6.26568413
H        2.78104019       2.92528152       7.79472923
H        1.61025238       5.17196274       8.03185463
H        0.13519096       6.10271263       6.24019432
H        0.05729103       4.75819016       4.01547432
H        1.16270828       2.70188332       3.71612549
14
Properties=species:S:1:pos:R:3 name=An mapped_smiles="[N:1]([c:2]1[c:3]([H:10])[c:4]([H:11])[c:5]([H:12])[c:6]([H:13])[c:7]1[H:14])([H:8])[H:9]" pbc="F F F"
N        3.89720726       3.66699028       3.36532593
C        2.69247627       4.33088875       3.48922157
C        2.66653633       5.41747093       4.33343315
C        1.58586693       6.32155800       4.24854088
C        0.43394279       6.05867195       3.48965073
C        0.50179482       4.94413567       2.72573280
C        1.65763283       4.13244057       2.63838196
H        3.93708229       2.77121925       2.83413124
H        4.42626381       3.55581093       4.25190735
H        3.53565025       5.52556419       4.94610596
H        1.53781319       7.26069069       4.85634995
H       -0.41098595       6.75896645       3.44575119
H       -0.35059929       4.72923088       2.09374619
H        1.69561195       3.23428917       1.93908882
14
Properties=species:S:1:pos:R:3 name=An mapped_smiles="[N:1]([c:2]1[c:3]([H:10])[c:4]([H:11])[c:5]([H:12])[c:6]([H:13])[c:7]1[H:14])([H:8])[H:9]" pbc="F F F"
N        4.96664810       6.58944130      -1.91308594
C        5.17017365       5.47017670      -1.03354263
C        6.23574066       5.48789597      -0.12368584
C        6.18286133       4.54113770       0.86692810
C        5.19310379       3.46225166       0.89817047
C        4.19506454       3.41524315      -0.00820732
C        4.17524338       4.48539162      -0.95613098
H        4.21824646       6.62828064      -2.62021446
H        5.81967545       7.05693626      -2.26909256
H        7.02300072       6.27449036      -0.07978058
H        6.98456383       4.48030472       1.58546829
H        5.28187943       2.66728020       1.69322777
H        3.39213943       2.66591835       0.03496933
H        3.28391266       4.61478806      -1.53903008
14
Properties=species:S:1:pos:R:3 name=An mapped_smiles="[N:1]([c:2]1[c:3]([H:10])[c:4]([H:11])[c:5]([H:12])[c:6]([H:13])[c:7]1[H:14])([H:8])[H:9]" pbc="F F F"
N        8.98282433      -3.64966774     -12.35251427
C        9.00331688      -3.02411079     -11.07028008
C        8.01024437      -3.43771935     -10.10713005
C        8.03909111      -2.88725853      -8.81442070
C        9.03658104      -1.90229607      -8.50879478
C       10.08196068      -1.64367485      -9.39822960
C       10.05235100      -2.13571167     -10.73217583
H        8.06518364      -3.83920860     -12.73592186
H        9.54271507      -3.23241806     -13.08464622
H        7.18671227      -4.12487984     -10.24870110
H        7.25475883      -3.19085121      -8.15115929
H        8.99097252      -1.38018990      -7.53182793
H       10.84818840      -0.87710571      -9.10133934
H       10.75799370      -1.78016090     -11.47724724
14
Properties=species:S:1:pos:R:3 name=An mapped_smiles="[N:1]([c:2]1[c:3]([H:10])[c:4]([H:11])[c:5]([H:12])[c:6]([H:13])[c:7]1[H:14])([H:8])[H:9]" pbc="F F F"
N        2.65300751      -1.68555260       4.25317001
C        2.68420792      -1.99977303       2.90883255
C        1.65699768      -2.79533386       2.29319763
C        1.58889771      -2.91636658       0.89776611
C        2.60627747      -2.49006844       0.06132126
C        3.70431519      -1.80825615       0.67244339
C        3.62708664      -1.42536354       2.08979416
H        1.73580551      -1.88998032       4.73613739
H        3.13507462      -0.76960373       4.42848587
H        0.77763367      -3.14342690       2.83961487
H        0.83879471      -3.48949432       0.43275452
H        2.65594482      -2.71331787      -1.03416443
H        4.58000183      -1.49584961      -0.01309967
H        4.42678452      -0.87940979       2.59810257
14
Properties=species:S:1:pos:R:3 name=An mapped_smiles="[N:1]([c:2]1[c:3]([H:10])[c:4]([H:11])[c:5]([H:12])[c:6]([H:13])[c:7]1[H:14])([H:8])[H:9]" pbc="F F F"
N        2.69022751       1.47573853       2.92763329
C        3.16563606       0.70651245       1.84013939
C        3.62961197       1.36309052       0.65467072
C        4.30962753       0.58668900      -0.34351921
C        4.35687447      -0.74393082      -0.22169685
C        3.82992554      -1.45696640       0.92072868
C        3.19809151      -0.76717377       1.94855309
H        2.18941879       2.30381775       2.60069847
H        2.34749603       1.05779266       3.75659561
H        3.59124374       2.41538620       0.56389236
H        4.76861954       1.13045120      -1.15661430
H        4.93444443      -1.29922867      -1.06426811
H        4.01129723      -2.54584885       1.02774429
H        2.81226730      -1.26230240       2.84143448
14
Properties=species:S:1:pos:R:3 name=An mapped_smiles="[N:1]([c:2]1[c:3]([H:10])[c:4]([H:11])[c:5]([H:12])[c:6]([H:13])[c:7]1[H:14])([H:8])[H:9]" pbc="F F F"
N        3.01492310      -5.99896622      -1.58110809
C        2.80227470      -6.86707687      -2.68434715
C        1.54181290      -7.35852432      -3.10187340
C        1.42164421      -8.16920853      -4.26636887
C        2.57472038      -8.43339920      -4.98846817
C        3.77735710      -7.82117844      -4.60964012
C        3.91292381      -7.08559799      -3.45295715
H        2.35449600      -5.87034988      -0.80924034
H        4.00699043      -5.89754105      -1.36031723
H        0.68531418      -7.05651474      -2.49901772
H        0.42466164      -8.52846146      -4.53614235
H        2.58218193      -9.04591751      -5.87827873
H        4.65774727      -8.12527847      -5.18943596
H        4.91505623      -6.72974777      -3.20561028
14
Properties=species:S:1:pos:R:3 name=An mapped_smiles="[N:1]([c:2]1[c:3]([H:10])[c:4]([H:11])[c:5]([H:12])[c:6]([H:13])[c:7]1[H:14])([H:8])[H:9]" pbc="F F F"
N       -3.80683899      -7.07132530      -0.39604187
C       -4.12609100      -6.20360374       0.76295090
C       -3.15477753      -5.77324867       1.72030449
C       -3.46611023      -4.86627769       2.73253632
C       -4.78556061      -4.31702614       2.83051300
C       -5.75099945      -4.79847336       1.97732735
C       -5.41163635      -5.78381920       1.00931358
H       -4.64746094      -7.48995018      -0.85720634
H       -2.97563171      -7.61883545      -0.43187523
H       -2.15161133      -6.18098640       1.52060318
H       -2.67235565      -4.41357613       3.35717583
H       -4.98544312      -3.57446098       3.54125786
H       -6.81587219      -4.50419235       1.99603844
H       -6.15465546      -6.18387032       0.31454277
14
Properties=species:S:1:pos:R:3 name=An mapped_smiles="[N:1]([c:2]1[c:3]([H:10])[c:4]([H:11])[c:5]([H:12])[c:6]([H:13])[c:7]1[H:14])([H:8])[H:9]" pbc="F F F"
N       -6.51868248      -4.48243523      -2.37860298
C       -6.61764336      -3.34948158      -1.56080627
C       -5.42251778      -2.68606186      -1.05656815
C       -5.54261208      -1.61463928      -0.18717384
C       -6.72550774      -1.13940430       0.23138428
C       -7.90579033      -1.71350098      -0.18953705
C       -7.83976936      -2.74474335      -1.13780785
H       -7.27940941      -5.13752365      -2.35428810
H       -5.59954262      -4.88492966      -2.36015320
H       -4.41497231      -2.89829063      -1.47942352
H       -4.64742470      -1.04209709       0.09462166
H       -6.85641289      -0.22046852       0.81538582
H       -8.87274742      -1.40972710       0.23770332
H       -8.72061729      -3.24032402      -1.49990654
14
Properties=species:S:1:pos:R:3 name=An mapped_smiles="[N:1]([c:2]1[c:3]([H:10])[c:4]([H:11])[c:5]([H:12])[c:6]([H:13])[c:7]1[H:14])([H:8])[H:9]" pbc="F F F"
N        3.43115997      -0.69104195      10.93249321
C        3.21429634      -0.71641350       9.59662437
C        2.93090248      -1.90752983       8.86972618
C        2.79516983      -1.80777931       7.44699669
C        2.89743233      -0.59378242       6.75428581
C        3.13406372       0.59023285       7.53858757
C        3.35126495       0.52236748       8.91670036
H        3.22355652      -1.52752686      11.50553703
H        3.31650543       0.17817497      11.47086906
H        2.80197144      -2.79994011       9.45152855
H        2.61426163      -2.71121025       6.89279747
H        2.83778763      -0.59915924       5.62126732
H        3.26271820       1.62105370       7.06690025
H        3.56071854       1.51068878       9.38613701
14
Properties=species:S:1:pos:R:3 name=An mapped_smiles="[N:1]([c:2]1[c:3]([H:10])[c:4]([H:11])[c:5]([H:12])[c:6]([H:13])[c:7]1[H:14])([H:8])[H:9]" pbc="F F F"
N       -8.69199181      -5.00954628      -0.79355049
C       -7.64730263      -4.12335777      -1.24778938
C       -7.65704536      -3.40508270      -2.47604179
C       -6.55611992      -2.77607536      -2.91219521
C       -5.38611221      -2.63915443      -2.13921165
C       -5.36042404      -3.38438988      -0.99373817
C       -6.41322899      -4.12262154      -0.52942085
H       -8.67916298      -5.30279350       0.16636467
H       -9.63327980      -4.90005302      -1.19388771
H       -8.47221947      -3.40957451      -3.09324837
H       -6.71250916      -2.28985214      -3.86914635
H       -4.56513023      -1.99520874      -2.46548271
H       -4.47848892      -3.26424980      -0.39238930
H       -6.26255989      -4.76109886       0.39549065
14
Properties=species:S:1:pos:R:3 name=An mapped_smiles="[N:1]([c:2]1[c:3]([H:10])[c:4]([H:11])[c:5]([H:12])[c:6]([H:13])[c:7]1[H:14])([H:8])[H:9]" pbc="F F F"
N        5.10098648       5.59968376       3.05815887
C        4.73391724       4.62022781       2.08223343
C        5.01429749       4.79375648       0.70279312
C        4.52641296       3.91074181      -0.29225922
C        3.89207077       2.66787148       0.08860779
C        3.68115616       2.49992180       1.50133133
C        4.11936188       3.44488907       2.48163605
H        4.70779037       5.63140488       3.95518112
H        5.06048965       6.48983955       2.65822601
H        5.70160675       5.59297752       0.32352829
H        4.56455612       4.20677567      -1.33446121
H        3.44424820       1.97694778      -0.67256165
H        3.10779572       1.67554092       1.87027740
H        3.85837936       3.29141617       3.54321671
14
Properties=species:S:1:pos:R:3 name=An mapped_smiles="[N:1]([c:2]1[c:3]([H:10])[c:4]([H:11])[c:5]([H:12])[c:6]([H:13])[c:7]1[H:14])([H:8])[H:9]" pbc="F F F"
N       -4.10973167       0.40856934       1.18019104
C       -3.56259346       1.45039368       1.95535088
C       -3.70268440       1.38470459       3.36137390
C       -3.17782593       2.40483093       4.14322090
C       -2.45351982       3.42631531       3.59058952
C       -2.20492935       3.42472839       2.27882767
C       -2.68221092       2.43379974       1.39818954
H       -5.01593018       0.09243393       1.52050972
H       -4.22434616       0.50392151       0.23163605
H       -4.28509521       0.62264252       3.77421761
H       -3.34843445       2.40488434       5.21006203
H       -2.07438087       4.23955917       4.14806175
H       -1.59399605       4.29634476       1.88820267
H       -2.35805893       2.44759369       0.33877754
14
Properties=species:S:1:pos:R:3 name=An mapped_smiles="[N:1]([c:2]1[c:3]([H:10])[c:4]([H:11])[c:5]([H:12])[c:6]([H:13])[c:7]1[H:14])([H:8])[H:9]" pbc="F F F"
N        0.76956367      -4.35850716      -1.33913040
C        0.64332390      -3.92542458       0.03488922
C       -0.56176567      -3.37915993       0.54535294
C       -0.66378975      -3.03450966       1.94573593
C        0.46860695      -3.16193581       2.81822968
C        1.56630898      -3.85332680       2.31020737
C        1.70808601      -4.15195656       0.94405365
H        1.68207359      -4.67957497      -1.65816498
H        0.20056343      -3.95156288      -2.04132080
H       -1.39947319      -3.27966499      -0.12453842
H       -1.57665062      -2.63601875       2.28431320
H        0.48753166      -2.91778755       3.90024948
H        2.31395149      -4.08175087       3.03081512
H        2.65206337      -4.55031776       0.69622421
14
Properties=species:S:1:pos:R:3 name=An mapped_smiles="[N:1]([c:2]1[c:3]([H:10])[c:4]([H:11])[c:5]([H:12])[c:6]([H:13])[c:7]1[H:14])([H:8])[H:9]" pbc="F F F"
N       -9.97778511      -5.78759003       1.24328041
C       -8.71320343      -6.44510460       1.23962593
C       -8.53831863      -7.76506615       1.58902359
C       -7.27737808      -8.42761803       1.38690376
C       -6.18350983      -7.69417381       0.96296883
C       -6.35585785      -6.34973717       0.67263794
C       -7.61588287      -5.70363045       0.75824356
H       -9.99908447      -4.78057289       1.27350044
H      -10.73944473      -6.32734489       1.62691879
H       -9.41299438      -8.36369133       1.79531479
H       -7.23469162      -9.47893333       1.62365150
H       -5.13664627      -8.07497978       0.94621849
H       -5.54803848      -5.69370842       0.48539734
H       -7.72512817      -4.65723419       0.41529846
14
Properties=species:S:1:pos:R:3 name=An mapped_smiles="[N:1]([c:2]1[c:3]([H:10])[c:4]([H:11])[c:5]([H:12])[c:6]([H:13])[c:7]1[H:14])([H:8])[H:9]" pbc="F F F"
N       -3.09498024      -2.28763580       2.80892944
C       -1.81178093      -2.91127586       2.72463226
C       -1.24955177      -3.62429047       3.75647354
C       -0.17953110      -4.49007607       3.52655792
C        0.33884621      -4.57956505       2.24561691
C       -0.33324432      -3.90509796       1.15119934
C       -1.32111931      -3.00837898       1.38642120
H       -3.28214455      -2.05163574       3.80007172
H       -3.29714012      -1.56885719       2.12285995
H       -1.64800072      -3.57768822       4.73746109
H        0.22370148      -5.07173729       4.29573822
H        1.15529060      -5.33578682       2.06792831
H       -0.01256180      -4.14879799       0.13565445
H       -1.88837051      -2.56048584       0.50941467
14
Properties=species:S:1:pos:R:3 name=An mapped_smiles="[N:1]([c:2]1[c:3]([H:10])[c:4]([H:11])[c:5]([H:12])[c:6]([H:13])[c:7]1[H:14])([H:8])[H:9]" pbc="F F F"
N        3.04067612       4.05723572      -8.48782730
C        2.88407516       4.14428329      -7.09774017
C        2.61493683       2.97703171      -6.39830399
C        2.53406906       3.05577087      -4.98968124
C        2.59547806       4.32250595      -4.33303833
C        2.77309799       5.47939682      -5.07312012
C        2.89189148       5.40968323      -6.43169022
H        3.27964783       3.12199402      -8.74646759
H        3.71142960       4.68293762      -8.86538315
H        2.55680847       1.96570969      -6.83072281
H        2.36578751       2.15835953      -4.41189957
H        2.39892578       4.43807983      -3.24763489
H        2.90791321       6.45488358      -4.53927231
H        2.93815994       6.25238037      -7.07590103
14
Properties=species:S:1:pos:R:3 name=An mapped_smiles="[N:1]([c:2]1[c:3]([H:10])[c:4]([H:11])[c:5]([H:12])[c:6]([H:13])[c:7]1[H:14])([H:8])[H:9]" pbc="F F F"
N        0.57377052      -4.03642082       4.13346863
C        0.88889694      -3.31825829       5.24101639
C        0.97070122      -4.03487206       6.44209290
C        1.23811150      -3.38646507       7.57221794
C        1.31487274      -1.99337769       7.57069206
C        0.95206261      -1.18389893       6.41879272
C        0.76391792      -1.93509674       5.20219040
H        0.82065582      -5.05166435       4.20484924
H        0.98702049      -3.67799187       3.25428009
H        0.81620026      -5.06422234       6.59684753
H        1.37511253      -4.06352043       8.47942924
H        1.53958511      -1.55453873       8.54594994
H        0.85144424      -0.12827301       6.43692780
H        0.49168587      -1.43299484       4.27801132
14
Properties=species:S:1:pos:R:3 name=An mapped_smiles="[N:1]([c:2]1[c:3]([H:10])[c:4]([H:11])[c:5]([H:12])[c:6]([H:13])[c:7]1[H:14])([H:8])[H:9]" pbc="F F F"
N        3.56295013       0.57616425      -0.15476227
C        3.43558121      -0.60507965      -0.91695023
C        4.02270699      -0.68447876      -2.23319626
C        3.85361099      -1.84473419      -3.02689743
C        3.14060020      -2.96768188      -2.57139969
C        2.65423584      -2.93785095      -1.18856049
C        2.82083893      -1.78149033      -0.42416763
H        3.88430595       1.40197754      -0.59489059
H        2.91872406       0.68115997       0.58353424
H        4.53300476       0.17161942      -2.63090134
H        4.22685432      -1.74399948      -4.00645447
H        2.93536377      -3.83010101      -3.18599319
H        2.14015007      -3.80438232      -0.79578781
H        2.32177734      -1.75530624       0.57345581
14
Properties=species:S:1:pos:R:3 name=An mapped_smiles="[N:1]([c:2]1[c:3]([H:10])[c:4]([H:11])[c:5]([H:12])[c:6]([H:13])[c:7]1[H:14])([H:8])[H:9]" pbc="F F F"
N       -4.03072739       3.36518860      -5.50290489
C       -3.66081619       2.00130463      -5.59899139
C       -3.99223900       1.32363129      -6.77208900
C       -3.73283386      -0.03260040      -6.89767075
C       -3.08002281      -0.76949692      -5.84955406
C       -2.73025513      -0.02757645      -4.69606400
C       -3.12626266       1.29951859      -4.53611565
H       -4.97536087       3.52285385      -5.94470787
H       -3.87550735       3.78629303      -4.55446053
H       -4.40609169       1.73556900      -7.65106392
H       -4.10376930      -0.47867584      -7.78433228
H       -2.88795090      -1.83815002      -5.83806038
H       -2.40415955      -0.63358688      -3.76476097
H       -3.08195877       1.83495331      -3.61854744
14
Properties=species:S:1:pos:R:3 name=An mapped_smiles="[N:1]([c:2]1[c:3]([H:10])[c:4]([H:11])[c:5]([H:12])[c:6]([H:13])[c:7]1[H:14])([H:8])[H:9]" pbc="F F F"
N       -5.63628006       3.89195061      -9.70953941
C       -4.86211014       3.10085106      -8.81283379
C       -4.08565903       3.60357094      -7.75845909
C       -3.10494232       2.82686424      -7.09622765
C       -2.88432693       1.53710365      -7.57043266
C       -3.76018143       0.97923470      -8.55990410
C       -4.74505234       1.76298332      -9.16165733
H       -6.44348526       3.46821404     -10.02214622
H       -5.93839645       4.79573250      -9.35883904
H       -4.16923523       4.59340477      -7.35757256
H       -2.53785706       3.22236252      -6.22254944
H       -2.24542618       0.87685585      -6.97629929
H       -3.62612534      -0.06562805      -8.87840080
H       -5.30728149       1.31207466      -9.98809624
14
Properties=species:S:1:pos:R:3 name=An mapped_smiles="[N:1]([c:2]1[c:3]([H:10])[c:4]([H:11])[c:5]([H:12])[c:6]([H:13])[c:7]1[H:14])([H:8])[H:9]" pbc="F F F"
N        5.54272842      -2.29901695       0.09521866
C        5.40357971      -3.72397423      -0.00437927
C        6.54772949      -4.50552940      -0.16000366
C        6.49330521      -5.90435600       0.08411789
C        5.32047272      -6.52190208       0.39754486
C        4.15719986      -5.75473595       0.60580826
C        4.24105835      -4.39227104       0.37925720
H        6.10508728      -1.87485313      -0.65962982
H        4.66708374      -1.71295738       0.27935791
H        7.53597069      -4.13234520      -0.17781067
H        7.42255974      -6.49851036       0.06680298
H        5.28060150      -7.62036705       0.55076981
H        3.20037842      -6.17968559       0.83740616
H        3.33596039      -3.90157890       0.59230042
14
Properties=species:S:1:pos:R:3 name=An mapped_smiles="[N:1]([c:2]1[c:3]([H:10])[c:4]([H:11])[c:5]([H:12])[c:6]([H:13])[c:7]1[H:14])([H:8])[H:9]" pbc="F F F"
N       -2.14176750      -0.34216118       5.48511124
C       -1.28451157       0.14559746       6.47029114
C        0.02822876      -0.39026642       6.59645844
C        0.91642189       0.02814293       7.63860893
C        0.53356361       1.08375168       8.48939323
C       -0.80845070       1.58974838       8.37865257
C       -1.63245010       1.18573952       7.31522942
H       -2.96920013       0.23378563       5.22789001
H       -1.72670746      -0.99066544       4.80153465
H        0.43082809      -1.15579796       5.91845703
H        1.88264084      -0.39612007       7.60171318
H        1.24792099       1.51522636       9.20052147
H       -1.23228073       2.27069283       9.09956169
H       -2.57727432       1.69048119       7.20702171
14
Properties=species:S:1:pos:R:3 name=An mapped_smiles="[N:1]([c:2]1[c:3]([H:10])[c:4]([H:11])[c:5]([H:12])[c:6]([H:13])[c:7]1[H:14])([H:8])[H:9]" pbc="F F F"
N       -3.34321594       4.05592728      -0.19080353
C       -3.80389404       2.76432228       0.04779816
C       -3.79910660       1.73326492      -0.97165680
C       -4.20306587       0.45078278      -0.62833786
C       -4.69205093       0.18119049       0.69223785
C       -4.58141708       1.19049263       1.71112823
C       -4.17061806       2.44283295       1.34334946
H       -3.27553940       4.32256317      -1.18432999
H       -3.85039330       4.79236412       0.31710052
H       -3.32721519       2.02328873      -1.90387344
H       -4.05544853      -0.24142456      -1.49643326
H       -5.05819702      -0.83393860       0.98091888
H       -4.72496605       1.06952667       2.76594162
H       -4.14800453       3.21453476       2.08614731
14
Properties=species:S:1:pos:R:3 name=An mapped_smiles="[N:1]([c:2]1[c:3]([H:10])[c:4]([H:11])[c:5]([H:12])[c:6]([H:13])[c:7]1[H:14])([H:8])[H:9]" pbc="F F F"
N       -1.26275444       4.63387680       2.76966476
C       -1.85946846       4.85467720       4.04953003
C       -3.21244621       4.73536873       4.29518890
C       -3.72677422       5.01453400       5.52233124
C       -2.89401054       5.24072266       6.58065033
C       -1.47617531       5.39492607       6.41345215
C       -1.02322006       5.24702835       5.12067032
H       -0.30427361       4.42206192       2.80405807
H       -1.79746819       4.08658791       2.11878967
H       -3.91096687       4.56921959       3.46761703
H       -4.86326408       5.01911354       5.62759018
H       -3.27363014       5.37444878       7.56202507
H       -0.86471748       5.66012383       7.29324913
H        0.10925102       5.33541870       4.91379929
14
Properties=species:S:1:pos:R:3 name=An mapped_smiles="[N:1]([c:2]1[c:3]([H:10])[c:4]([H:11])[c:5]([H:12])[c:6]([H:13])[c:7]1[H:14])([H:8])[H:9]" pbc="F F F"
N       -4.89331627       4.02784729       1.24437523
C       -3.70400810       3.69025230       1.90532303
C       -3.77747154       3.33291435       3.24926567
C       -2.66477013       2.90115166       3.90667534
C       -1.40215111       2.76287842       3.23890495
C       -1.33483696       2.98718834       1.85787392
C       -2.47165489       3.46067238       1.16893196
H       -4.74816704       4.78545570       0.57867813
H       -5.64971733       4.28982544       1.84839439
H       -4.71998405       3.50242424       3.78235054
H       -2.73066521       2.56099892       4.92307091
H       -0.53781319       2.46747398       3.80034447
H       -0.40136147       3.02820396       1.33174324
H       -2.41984367       3.71401978       0.12276649
14
Properties=species:S:1:pos:R:3 name=An mapped_smiles="[N:1]([c:2]1[c:3]([H:10])[c:4]([H:11])[c:5]([H:12])[c:6]([H:13])[c:7]1[H:14])([H:8])[H:9]" pbc="F F F"
N        4.12633133      -4.91170502      -0.26057053
C        2.90773010      -4.33411407      -0.72661591
C        2.59577942      -4.34365845      -2.18405533
C        1.36363983      -3.92502213      -2.67956543
C        0.29460907      -3.57125092      -1.84177399
C        0.57942200      -3.68375397      -0.41639328
C        1.86220169      -3.95352936       0.10733414
H        4.97040558      -4.82869720      -0.86744690
H        4.34981155      -4.88578796       0.69978333
H        3.33277130      -4.66809845      -2.91610718
H        1.30809402      -3.60701752      -3.76797485
H       -0.66578293      -3.20481110      -2.17052841
H       -0.26296616      -3.34983826       0.26244354
H        2.11552429      -3.92048264       1.17058563
14
Properties=species:S:1:pos:R:3 name=An mapped_smiles="[N:1]([c:2]1[c:3]([H:10])[c:4]([H:11])[c:5]([H:12])[c:6]([H:13])[c:7]1[H:14])([H:8])[H:9]" pbc="F F F"
N       -4.53292847       7.34198570      -1.10183334
C       -3.78937149       6.28092575      -1.59164238
C       -2.71429062       5.74783707      -0.87742615
C       -1.92919540       4.66540909      -1.41840172
C       -2.15925980       4.14898300      -2.71183968
C       -3.21877861       4.72828293      -3.45367813
C       -4.07184219       5.70647812      -2.86011124
H       -5.50866890       7.23334312      -1.33114243
H       -4.37507820       7.38258171      -0.10296059
H       -2.41360283       6.25641251       0.07305908
H       -1.08233261       4.40247726      -0.84160995
H       -1.36192513       3.54251480      -3.22350502
H       -3.41849709       4.38397598      -4.43002510
H       -4.88288498       6.02305222      -3.51163101
14
Properties=species:S:1:pos:R:3 name=An mapped_smiles="[N:1]([c:2]1[c:3]([H:10])[c:4]([H:11])[c:5]([H:12])[c:6]([H:13])[c:7]1[H:14])([H:8])[H:9]" pbc="F F F"
N       -4.54026604       1.53019905      -6.81078720
C       -4.17399406       1.18791199      -5.50552940
C       -3.80917168      -0.15380669      -5.32164383
C       -3.38789940      -0.57831383      -4.01712036
C       -3.32443047       0.34945297      -2.88894653
C       -3.79431725       1.69174957      -3.11163139
C       -4.16711998       2.06853676      -4.44988632
H       -5.20345116       2.22334099      -6.88206291
H       -4.81948662       0.73248863      -7.46938133
H       -3.76248741      -0.80012703      -6.18617058
H       -3.07596397      -1.54950142      -3.84084702
H       -3.02850151      -0.13693047      -1.95908356
H       -3.81558800       2.40190315      -2.26602554
H       -4.51148033       3.08732224      -4.62212181
14
Properties=species:S:1:pos:R:3 name=An mapped_smiles="[N:1]([c:2]1[c:3]([H:10])[c:4]([H:11])[c:5]([H:12])[c:6]([H:13])[c:7]1[H:14])([H:8])[H:9]" pbc="F F F"
N       -2.87906837       5.61395264      -4.60338593
C       -2.74448776       4.85235977      -5.71542358
C       -1.64674950       4.99093628      -6.63021088
C       -1.61581612       4.16765213      -7.71927261
C       -2.63735771       3.19956970      -7.84730911
C       -3.69395638       3.07688904      -6.98952103
C       -3.70749092       3.89648438      -5.87739182
H       -3.19282341       5.12915802      -3.79469299
H       -2.05424500       6.21495056      -4.44476700
H       -0.93092537       5.84253693      -6.59678268
H       -0.90596962       4.26229858      -8.53778458
H       -2.57472038       2.49693298      -8.67671204
H       -4.52195168       2.42294693      -7.17385864
H       -4.53774071       3.87648773      -5.14704132
14
Properties=species:S:1:pos:R:3 name=An mapped_smiles="[N:1]([c:2]1[c:3]([H:10])[c:4]([H:11])[c:5]([H:12])[c:6]([H:13])[c:7]1[H:14])([H:8])[H:9]" pbc="F F F"
N        7.23513603      -1.92119026       2.16558266
C        6.92877579      -2.47401237       0.89217949
C        7.69376183      -3.58414268       0.40151024
C        7.39249992      -4.25037956      -0.83336449
C        6.51465988      -3.63306618      -1.70656013
C        5.74855042      -2.56702614      -1.21081352
C        5.89702225      -2.00737572       0.08079338
H        7.57922935      -2.52134132       2.92254448
H        6.57532883      -1.19030190       2.45953941
H        8.58711815      -3.84615135       0.91414070
H        8.01959801      -5.12401772      -1.21376991
H        6.25741959      -3.98573112      -2.72143364
H        4.96440125      -2.28533363      -1.86033058
H        5.32467270      -1.11342049       0.44088936
14
Properties=species:S:1:pos:R:3 name=An mapped_smiles="[N:1]([c:2]1[c:3]([H:10])[c:4]([H:11])[c:5]([H:12])[c:6]([H:13])[c:7]1[H:14])([H:8])[H:9]" pbc="F F F"
N        2.28167152       4.41742325       0.34886932
C        2.67153740       3.11293411       0.22517776
C        2.78020859       2.22635269       1.31880188
C        3.19403648       0.91377258       1.18160248
C        3.46785927       0.36411095      -0.06305313
C        3.28352165       1.19450188      -1.21425629
C        2.87200165       2.53466034      -1.04378319
H        2.02202797       4.89674950      -0.53876114
H        1.50071526       4.46501160       0.95758438
H        2.78401375       2.63329697       2.34928513
H        3.24350929       0.28354836       2.06670380
H        3.78054810      -0.68651199      -0.08628082
H        3.34570885       0.89715195      -2.24946594
H        2.78973961       3.26898766      -1.83456993
14
Properties=species:S:1:pos:R:3 name=An mapped_smiles="[N:1]([c:2]1[c:3]([H:10])[c:4]([H:11])[c:5]([H:12])[c:6]([H:13])[c:7]1[H:14])([H:8])[H:9]" pbc="F F F"
N       -2.35031891       0.63757896      -1.84202385
C       -2.89125443       1.89145088      -1.88569260
C       -4.18292999       2.21786308      -2.47292519
C       -4.62576294       3.54716110      -2.59639168
C       -3.81750488       4.57441330      -2.01861572
C       -2.63251495       4.24052238      -1.38089180
C       -2.07979202       2.94873619      -1.36723709
H       -2.94282913      -0.13360786      -2.09389687
H       -1.78108978       0.41412163      -1.05620956
H       -4.74016190       1.42907143      -2.86102676
H       -5.58720779       3.68628693      -3.12518120
H       -3.99638367       5.62457275      -2.05305481
H       -2.01555634       5.06740189      -0.98309898
H       -1.14686584       2.82971382      -0.90106010
