7
Properties=species:S:1:pos:R:3 name=NOM mapped_smiles="[C:1]([N+:2](=[O:3])[O-:4])([H:5])([H:6])[H:7]" pbc="F F F"
C        4.59642601       1.14135170      -6.36120415
N        6.06255913       1.37314034      -6.24144554
O        6.52194023       1.40555000      -5.11912346
O        6.69778633       1.74837685      -7.21356010
H        4.35085487       0.29139137      -5.72737694
H        4.42504120       1.12049675      -7.49122429
H        4.13015556       2.06571770      -5.99432945
7
Properties=species:S:1:pos:R:3 name=NOM mapped_smiles="[C:1]([N+:2](=[O:3])[O-:4])([H:5])([H:6])[H:7]" pbc="F F F"
C        0.00000000       0.00000000       0.00000000
N       -0.69279480       0.64770508      -1.12615204
O       -0.78066254       0.03993416      -2.19993019
O       -1.19812775       1.78033447      -0.94910812
H        1.05018616      -0.15485191      -0.44363022
H       -0.52335358      -0.95052719       0.09613419
H       -0.07901001       0.61828613       0.90858841
7
Properties=species:S:1:pos:R:3 name=NOM mapped_smiles="[C:1]([N+:2](=[O:3])[O-:4])([H:5])([H:6])[H:7]" pbc="F F F"
C        1.54829216       3.33757973       8.12000084
N        1.71533775       4.08960915       6.74420166
O        2.38595963       5.16934395       6.58722305
O        1.10452461       3.53163338       5.81924820
H        1.73541832       2.29144478       7.93514824
H        0.52744102       3.35900307       8.58428764
H        2.21250153       3.80543709       8.88066673
7
Properties=species:S:1:pos:R:3 name=NOM mapped_smiles="[C:1]([N+:2](=[O:3])[O-:4])([H:5])([H:6])[H:7]" pbc="F F F"
C        0.00000000       0.00000000       0.00000000
N       -0.70417404      -0.89519310       0.92672539
O       -1.31295776      -1.89896202       0.44031143
O       -0.76636124      -0.48447418       2.10179520
H        0.66551590       0.61729813       0.59161568
H       -0.64041901       0.69099808      -0.45576286
H        0.47632599      -0.56486511      -0.80124855
7
Properties=species:S:1:pos:R:3 name=NOM mapped_smiles="[C:1]([N+:2](=[O:3])[O-:4])([H:5])([H:6])[H:7]" pbc="F F F"
C        0.00000000       0.00000000       0.00000000
N        0.62221909       0.17437172      -1.33978081
O        0.28899002       1.24413872      -1.87683296
O        1.46887970      -0.60221291      -1.82407570
H        0.79212570      -0.19862556       0.76318932
H       -0.75981331      -0.69638824      -0.08996773
H       -0.46631241       0.96256638       0.17961311
7
Properties=species:S:1:pos:R:3 name=NOM mapped_smiles="[C:1]([N+:2](=[O:3])[O-:4])([H:5])([H:6])[H:7]" pbc="F F F"
C        0.00000000       0.00000000       0.00000000
N       -0.75255394      -0.84777832       0.98888969
O       -1.30737495      -0.24860764       1.91775322
O       -0.94833755      -1.98325729       0.61882210
H        0.62095451       0.70617676       0.53672981
H       -0.69700050       0.66575241      -0.50097084
H        0.42211151      -0.64503479      -0.72425270
7
Properties=species:S:1:pos:R:3 name=NOM mapped_smiles="[C:1]([N+:2](=[O:3])[O-:4])([H:5])([H:6])[H:7]" pbc="F F F"
C        0.00000000       0.00000000       0.00000000
N       -0.78984070       0.70925140      -1.02248383
O       -0.89708328       1.94319153      -0.85339737
O       -1.17982864       0.04342651      -1.99245453
H        0.71263504      -0.59828186      -0.47226715
H       -0.58120346      -0.52843475       0.69552994
H        0.62596512       0.77529907       0.46609497
7
Properties=species:S:1:pos:R:3 name=NOM mapped_smiles="[C:1]([N+:2](=[O:3])[O-:4])([H:5])([H:6])[H:7]" pbc="F F F"
C        0.00000000       0.00000000       0.00000000
N       -0.51409149       0.83706093       0.99894714
O       -0.25421333       0.43373871       2.14836693
O       -1.16134834       1.91643715       0.73062325
H       -0.54827118      -0.94440079       0.09591293
H        1.09238052      -0.16097450       0.20161629
H       -0.19014168       0.51882553      -0.98290825
7
Properties=species:S:1:pos:R:3 name=NOM mapped_smiles="[C:1]([N+:2](=[O:3])[O-:4])([H:5])([H:6])[H:7]" pbc="F F F"
C       -5.46036339      -0.92152023      -0.85374260
N       -4.08483696      -0.83148575      -1.18045616
O       -3.22897148      -1.28110504      -0.37926483
O       -3.84441185      -0.24723244      -2.28125572
H       -5.76907158      -1.97957230      -0.50725174
H       -6.10922813      -0.60755157      -1.79269218
H       -5.63514519      -0.12794876      -0.12946129
7
Properties=species:S:1:pos:R:3 name=NOM mapped_smiles="[C:1]([N+:2](=[O:3])[O-:4])([H:5])([H:6])[H:7]" pbc="F F F"
C        5.00285339       1.77461243      -3.01430130
N        5.24896240       1.09488487      -1.79666901
O        4.19021606       0.48013496      -1.49011993
O        6.39378738       1.08881569      -1.32084656
H        3.98546219       2.11265755      -3.01219940
H        5.11338425       0.96177483      -3.71967697
H        5.78409576       2.49062157      -3.33795929
7
Properties=species:S:1:pos:R:3 name=NOM mapped_smiles="[C:1]([N+:2](=[O:3])[O-:4])([H:5])([H:6])[H:7]" pbc="F F F"
C        3.39176559       1.24643898      -6.87875938
N        4.11772919       0.03443336      -7.24609184
O        4.21226120      -0.75440025      -6.26693535
O        4.33924866      -0.23110771      -8.41664696
H        2.79097748       1.54129982      -7.73765373
H        4.10763931       2.04193306      -6.66955376
H        2.76784134       0.99302864      -6.02221489
7
Properties=species:S:1:pos:R:3 name=NOM mapped_smiles="[C:1]([N+:2](=[O:3])[O-:4])([H:5])([H:6])[H:7]" pbc="F F F"
C       -3.25649643      -4.70184517       0.43755722
N       -2.86372375      -3.45974159      -0.11753082
O       -2.02381897      -2.79867935       0.53829765
O       -3.45029449      -3.10680962      -1.17886162
H       -2.58933258      -5.41509056      -0.10442162
H       -4.25115204      -4.86939621       0.09086609
H       -3.16249847      -4.77025032       1.50613594
7
Properties=species:S:1:pos:R:3 name=NOM mapped_smiles="[C:1]([N+:2](=[O:3])[O-:4])([H:5])([H:6])[H:7]" pbc="F F F"
C        0.00000000       0.00000000       0.00000000
N       -0.30582809       1.03900146       0.92693138
O       -1.10089684       0.80286407       1.80928993
O        0.17745590       2.12838364       0.64103889
H        0.81316376      -0.54968643       0.37811852
H        0.34068871       0.38460541      -0.89978790
H       -0.87880325      -0.64128876      -0.11930466
7
Properties=species:S:1:pos:R:3 name=NOM mapped_smiles="[C:1]([N+:2](=[O:3])[O-:4])([H:5])([H:6])[H:7]" pbc="F F F"
C        0.00000000       0.00000000       0.00000000
N        0.55949402      -1.03799438       0.92441368
O        1.74538803      -0.88694000       1.23762703
O       -0.25793839      -1.89067841       1.40760231
H       -0.77966690      -0.38185120      -0.68759918
H        0.82817841       0.53479385      -0.43300438
H       -0.46224594       0.71623230       0.61838341
7
Properties=species:S:1:pos:R:3 name=NOM mapped_smiles="[C:1]([N+:2](=[O:3])[O-:4])([H:5])([H:6])[H:7]" pbc="F F F"
C        1.20330048      -1.70635414       4.38320541
N        0.79214859      -3.14127922       4.19328690
O       -0.42066956      -3.39049339       4.06008530
O        1.76793671      -3.92072868       4.11771774
H        1.25334930      -1.33172798       3.31951141
H        2.11673737      -1.57736397       4.99814606
H        0.36735535      -1.10964775       4.76851654
7
Properties=species:S:1:pos:R:3 name=NOM mapped_smiles="[C:1]([N+:2](=[O:3])[O-:4])([H:5])([H:6])[H:7]" pbc="F F F"
C        0.00000000       0.00000000       0.00000000
N       -0.96163559       0.20096588      -1.18614769
O       -0.58042526      -0.11045837      -2.31389046
O       -2.00628471       0.76773834      -0.89764023
H       -0.06451988       0.94183731       0.52112198
H        1.07570457      -0.35115242      -0.20250130
H       -0.42830849      -0.74070930       0.71615982
7
Properties=species:S:1:pos:R:3 name=NOM mapped_smiles="[C:1]([N+:2](=[O:3])[O-:4])([H:5])([H:6])[H:7]" pbc="F F F"
C        7.70184517       2.45082474       4.91523552
N        6.57480812       2.18286705       5.59489441
O        6.35804176       2.93264771       6.57608223
O        5.84404373       1.24194336       5.11817551
H        7.60259056       2.63752556       3.80714989
H        8.39726067       1.57944298       4.98274612
H        8.14111519       3.27763748       5.36107254
7
Properties=species:S:1:pos:R:3 name=NOM mapped_smiles="[C:1]([N+:2](=[O:3])[O-:4])([H:5])([H:6])[H:7]" pbc="F F F"
C        0.70729065      -0.36959648       4.57163811
N       -0.78083229      -0.28244400       4.35353851
O       -1.56335258      -0.97468185       4.99990082
O       -1.04469299       0.57200050       3.52009201
H        0.98069000       0.00074005       5.51097107
H        1.26169968       0.07499886       3.80521584
H        0.97066116      -1.41774178       4.58552551
7
Properties=species:S:1:pos:R:3 name=NOM mapped_smiles="[C:1]([N+:2](=[O:3])[O-:4])([H:5])([H:6])[H:7]" pbc="F F F"
C        5.19310379      -0.12594032       3.38724136
N        3.97557449      -0.82368660       3.19521332
O        3.12514496      -0.39680672       2.37513351
O        3.93371582      -1.90929604       3.80466080
H        5.07627487       0.88741493       3.07822418
H        5.94137192      -0.57974434       2.67840195
H        5.50476456      -0.25801659       4.40960312
7
Properties=species:S:1:pos:R:3 name=NOM mapped_smiles="[C:1]([N+:2](=[O:3])[O-:4])([H:5])([H:6])[H:7]" pbc="F F F"
C       -4.25232887       0.29524231      -3.83784294
N       -4.58616257       0.40031815      -2.40424919
O       -4.96873856      -0.62852097      -1.83737755
O       -4.33586502       1.46803284      -1.86157036
H       -4.07685661      -0.73050690      -4.09763908
H       -3.40010643       0.94581985      -4.15491295
H       -5.25726318       0.57275772      -4.25312614
7
Properties=species:S:1:pos:R:3 name=NOM mapped_smiles="[C:1]([N+:2](=[O:3])[O-:4])([H:5])([H:6])[H:7]" pbc="F F F"
C        0.00000000       0.00000000       0.00000000
N       -0.06730270      -0.32644653      -1.41168213
O       -0.45844460      -1.45860863      -1.77189636
O        0.35717201       0.53310585      -2.17282486
H       -0.98259926       0.32486916       0.27219391
H        0.82919502       0.72154045       0.15361023
H        0.17448235      -0.96231079       0.54169083
7
Properties=species:S:1:pos:R:3 name=NOM mapped_smiles="[C:1]([N+:2](=[O:3])[O-:4])([H:5])([H:6])[H:7]" pbc="F F F"
C        0.00000000       0.00000000       0.00000000
N       -0.89276505      -1.08589363       0.37330818
O       -0.84000397      -2.10966682      -0.23487091
O       -1.63360596      -0.78729057       1.33215904
H        0.69193649       0.21866608       0.85423470
H       -0.59015656       0.85825729      -0.19836998
H        0.54508209      -0.33417130      -0.88935661
7
Properties=species:S:1:pos:R:3 name=NOM mapped_smiles="[C:1]([N+:2](=[O:3])[O-:4])([H:5])([H:6])[H:7]" pbc="F F F"
C       -4.81793022       2.69836807      -3.71493530
N       -5.66369820       3.15269661      -4.84595871
O       -4.96316719       3.68944550      -5.68541718
O       -6.89422035       2.90008926      -4.82930374
H       -3.87355614       2.36432838      -4.16415787
H       -5.31752968       1.83910179      -3.23672867
H       -4.72333336       3.37144279      -2.92029953
7
Properties=species:S:1:pos:R:3 name=NOM mapped_smiles="[C:1]([N+:2](=[O:3])[O-:4])([H:5])([H:6])[H:7]" pbc="F F F"
C        4.53785324       4.83798981       0.41989517
N        4.28446579       4.64733124      -0.91774368
O        5.10036469       5.04913712      -1.70045090
O        3.17813873       4.16612625      -1.19960022
H        3.61547470       4.86363220       0.85187149
H        5.06261826       5.73133087       0.49360275
H        5.25246429       3.98310089       0.64733124
7
Properties=species:S:1:pos:R:3 name=NOM mapped_smiles="[C:1]([N+:2](=[O:3])[O-:4])([H:5])([H:6])[H:7]" pbc="F F F"
C       -2.24176979      -2.33633804       0.58493423
N       -3.48121262      -2.83764458       1.17850113
O       -3.43962288      -3.69427299       2.10405350
O       -4.50300026      -2.35343170       0.71720695
H       -1.38296318      -2.93509483       0.97258759
H       -2.09807014      -1.42398834       1.06986046
H       -2.33036423      -2.15983200      -0.52361488
7
Properties=species:S:1:pos:R:3 name=NOM mapped_smiles="[C:1]([N+:2](=[O:3])[O-:4])([H:5])([H:6])[H:7]" pbc="F F F"
C       -5.47445107      -2.73048019      -0.98714447
N       -4.97880745      -1.98416901      -2.12982941
O       -3.97597694      -2.37474442      -2.67396927
O       -5.59076881      -0.95546341      -2.43885040
H       -6.04953957      -3.56315231      -1.43996811
H       -6.07259178      -2.08864594      -0.32571411
H       -4.57625389      -3.09144211      -0.51713943
7
Properties=species:S:1:pos:R:3 name=NOM mapped_smiles="[C:1]([N+:2](=[O:3])[O-:4])([H:5])([H:6])[H:7]" pbc="F F F"
C        0.28379822      -2.75580025      -5.88432693
N        0.64588547      -3.97677231      -6.72332573
O        1.20282745      -3.85742569      -7.83736992
O        0.38673782      -5.06279182      -6.19868279
H        1.20889282      -2.43237305      -5.53413391
H       -0.36144638      -3.14499855      -5.11119843
H       -0.03787994      -2.02896881      -6.58866119
7
Properties=species:S:1:pos:R:3 name=NOM mapped_smiles="[C:1]([N+:2](=[O:3])[O-:4])([H:5])([H:6])[H:7]" pbc="F F F"
C        0.00000000       0.00000000       0.00000000
N        0.20325851      -1.35222435      -0.29485321
O       -0.57401085      -2.18829918       0.20520020
O        1.09586525      -1.58041954      -1.09016418
H        0.85791397       0.56471825      -0.42424774
H       -0.15336037       0.06208992       1.07598114
H       -0.95253563       0.13666725      -0.46959305
7
Properties=species:S:1:pos:R:3 name=NOM mapped_smiles="[C:1]([N+:2](=[O:3])[O-:4])([H:5])([H:6])[H:7]" pbc="F F F"
C        1.39126205       0.47009468      -7.99922943
N        1.64809036       0.18777657      -6.52405167
O        2.67164993      -0.41259766      -6.21614075
O        0.70536804       0.56546211      -5.76792526
H        1.63912582       1.47212410      -8.29422760
H        0.30652237       0.32296371      -8.14491653
H        2.01426697      -0.12634659      -8.63837051
7
Properties=species:S:1:pos:R:3 name=NOM mapped_smiles="[C:1]([N+:2](=[O:3])[O-:4])([H:5])([H:6])[H:7]" pbc="F F F"
C       -2.36158752      -1.25470924       9.94453239
N       -3.75104523      -1.67386627       9.92480278
O       -4.25904083      -2.06427574       8.87158012
O       -4.37267303      -1.70655632      11.01438713
H       -1.97737885      -1.28269005       8.94454002
H       -1.79375458      -1.79525375      10.67226982
H       -2.35923767      -0.22824478      10.32626152
7
Properties=species:S:1:pos:R:3 name=NOM mapped_smiles="[C:1]([N+:2](=[O:3])[O-:4])([H:5])([H:6])[H:7]" pbc="F F F"
C       -0.44995117      -0.69450569      -3.12048340
N       -1.62888718      -0.85697365      -3.92541504
O       -2.78412056      -0.64335823      -3.43363953
O       -1.42996025      -1.43863869      -4.99907303
H       -0.61160088       0.16361809      -2.53022766
H        0.39953995      -0.59915352      -3.71836090
H       -0.42661285      -1.46772957      -2.39320374
7
Properties=species:S:1:pos:R:3 name=NOM mapped_smiles="[C:1]([N+:2](=[O:3])[O-:4])([H:5])([H:6])[H:7]" pbc="F F F"
C        0.19566154       8.97495079       4.31663132
N        0.23889732       8.73709679       5.70201492
O        0.97927284       7.90008736       6.20812607
O       -0.60242081       9.45459557       6.32319260
H        0.12886620      10.05339622       4.14963913
H       -0.69170952       8.43632317       4.03331375
H        1.02494621       8.56445122       3.88656235
7
Properties=species:S:1:pos:R:3 name=NOM mapped_smiles="[C:1]([N+:2](=[O:3])[O-:4])([H:5])([H:6])[H:7]" pbc="F F F"
C        0.00000000       0.00000000       0.00000000
N       -1.43496513      -0.29818344      -0.07640839
O       -2.11330986       0.33379173      -0.89694023
O       -1.89956474      -1.14438057       0.69006157
H        0.19463921       0.44421387       0.96838188
H        0.15100098       0.61598778      -0.90529633
H        0.50215149      -0.93372154      -0.09401703
7
Properties=species:S:1:pos:R:3 name=NOM mapped_smiles="[C:1]([N+:2](=[O:3])[O-:4])([H:5])([H:6])[H:7]" pbc="F F F"
C        0.19965363      -2.61109161       4.98971176
N        0.22402954      -2.38513947       3.57301712
O       -0.29480743      -3.24496841       2.87806320
O        0.83474350      -1.33913422       3.25895119
H       -0.63507462      -2.03417969       5.33909416
H        1.17641068      -2.24766159       5.39805984
H        0.06729507      -3.66648102       5.23344421
7
Properties=species:S:1:pos:R:3 name=NOM mapped_smiles="[C:1]([N+:2](=[O:3])[O-:4])([H:5])([H:6])[H:7]" pbc="F F F"
C        0.00000000       0.00000000       0.00000000
N        0.59948158      -0.90905762      -0.99877930
O        1.82011604      -1.08130455      -0.88303757
O       -0.04369736      -1.48275757      -1.95683861
H        0.26334763      -0.22994614       1.03296852
H       -1.09526253       0.05147362      -0.07440186
H        0.46128082       0.94698524      -0.19984245
7
Properties=species:S:1:pos:R:3 name=NOM mapped_smiles="[C:1]([N+:2](=[O:3])[O-:4])([H:5])([H:6])[H:7]" pbc="F F F"
C       -1.42303467       3.53976440      -5.37423897
N       -2.18013573       4.65663147      -4.78129005
O       -2.40819359       5.63898087      -5.44674873
O       -2.44061089       4.50311661      -3.62678719
H       -0.48764420       3.92139816      -5.80228424
H       -2.17683220       3.28978729      -6.12884903
H       -1.21793175       2.79128647      -4.60177612
7
Properties=species:S:1:pos:R:3 name=NOM mapped_smiles="[C:1]([N+:2](=[O:3])[O-:4])([H:5])([H:6])[H:7]" pbc="F F F"
C        0.00000000       0.00000000       0.00000000
N        0.89093971      -0.69446564       0.86725235
O        1.24128532      -1.81162262       0.44730186
O        1.33562660      -0.23846436       1.95509720
H        0.41141701       0.98638535      -0.11260605
H       -0.99227715      -0.00799942       0.51340103
H        0.02743912      -0.41209412      -1.01199341
7
Properties=species:S:1:pos:R:3 name=NOM mapped_smiles="[C:1]([N+:2](=[O:3])[O-:4])([H:5])([H:6])[H:7]" pbc="F F F"
C        2.70133209      -4.53957558       0.81142807
N        3.75561142      -5.08353233      -0.07490730
O        4.67731857      -5.55932045       0.49720383
O        3.61523056      -4.91713524      -1.30184937
H        1.71554565      -4.83202553       0.48058891
H        2.85470581      -3.48235893       0.83539009
H        2.97820282      -5.00129509       1.76562691
7
Properties=species:S:1:pos:R:3 name=NOM mapped_smiles="[C:1]([N+:2](=[O:3])[O-:4])([H:5])([H:6])[H:7]" pbc="F F F"
C        0.00000000       0.00000000       0.00000000
N       -0.44450188      -1.27934265       0.74408340
O       -0.85339737      -2.19039917       0.01442719
O       -0.37857246      -1.27082825       2.00561523
H        0.31918907      -0.30841064      -0.97369576
H        0.86506844       0.30811310       0.57668304
H       -0.71234322       0.78239441      -0.03300095
7
Properties=species:S:1:pos:R:3 name=NOM mapped_smiles="[C:1]([N+:2](=[O:3])[O-:4])([H:5])([H:6])[H:7]" pbc="F F F"
C       -7.63017654      -0.82357788      -1.45193672
N       -6.29737091      -1.31551743      -1.55128288
O       -6.14890289      -2.20745468      -0.69155502
O       -5.54780960      -0.72438431      -2.24592209
H       -7.95090103      -0.40753937      -2.39254189
H       -7.57095337       0.00630188      -0.72720718
H       -8.22697830      -1.68788528      -1.22088814
